# vtk DataFile Version 2.0
result
ASCII
DATASET UNSTRUCTURED_GRID
POINTS 1364 double
0.010000 0.000000 0.100000
0.020000 0.000000 0.100000
0.030000 0.000000 0.100000
0.040000 0.000000 0.100000
0.050000 0.000000 0.100000
0.060000 0.000000 0.100000
0.070000 0.000000 0.100000
0.080000 0.000000 0.100000
0.090000 0.000000 0.100000
0.100000 0.000000 0.100000
0.110000 0.000000 0.100000
0.120000 0.000000 0.100000
0.130000 0.000000 0.100000
0.140000 0.000000 0.100000
0.150000 0.000000 0.100000
0.160000 0.000000 0.100000
0.170000 0.000000 0.100000
0.180000 0.000000 0.100000
0.190000 0.000000 0.100000
0.200000 0.000000 0.100000
0.210000 0.000000 0.100000
0.220000 0.000000 0.100000
0.230000 0.000000 0.100000
0.240000 0.000000 0.100000
0.250000 0.000000 0.100000
0.260000 0.000000 0.100000
0.270000 0.000000 0.100000
0.280000 0.000000 0.100000
0.290000 0.000000 0.100000
0.300000 0.000000 0.100000
0.300000 0.010000 0.100000
0.300000 0.020000 0.100000
0.300000 0.030000 0.100000
0.290000 0.030000 0.100000
0.280000 0.030000 0.100000
0.270000 0.030000 0.100000
0.260000 0.030000 0.100000
0.250000 0.030000 0.100000
0.240000 0.030000 0.100000
0.230000 0.030000 0.100000
0.220000 0.030000 0.100000
0.210000 0.030000 0.100000
0.200000 0.030000 0.100000
0.190000 0.030000 0.100000
0.180000 0.030000 0.100000
0.170000 0.030000 0.100000
0.160000 0.030000 0.100000
0.150000 0.030000 0.100000
0.140000 0.030000 0.100000
0.130000 0.030000 0.100000
0.120000 0.030000 0.100000
0.110000 0.030000 0.100000
0.100000 0.030000 0.100000
0.090000 0.030000 0.100000
0.080000 0.030000 0.100000
0.070000 0.030000 0.100000
0.060000 0.030000 0.100000
0.050000 0.030000 0.100000
0.040000 0.030000 0.100000
0.030000 0.030000 0.100000
0.020000 0.030000 0.100000
0.010000 0.030000 0.100000
0.000000 0.030000 0.100000
0.000000 0.020000 0.100000
0.000000 0.010000 0.100000
0.010000 0.010000 0.100000
0.020000 0.010000 0.100000
0.030000 0.010000 0.100000
0.040000 0.010000 0.100000
0.050000 0.010000 0.100000
0.060000 0.010000 0.100000
0.070000 0.010000 0.100000
0.080000 0.010000 0.100000
0.090000 0.010000 0.100000
0.100000 0.010000 0.100000
0.110000 0.010000 0.100000
0.120000 0.010000 0.100000
0.130000 0.010000 0.100000
0.140000 0.010000 0.100000
0.150000 0.010000 0.100000
0.160000 0.010000 0.100000
0.170000 0.010000 0.100000
0.180000 0.010000 0.100000
0.190000 0.010000 0.100000
0.200000 0.010000 0.100000
0.210000 0.010000 0.100000
0.220000 0.010000 0.100000
0.230000 0.010000 0.100000
0.240000 0.010000 0.100000
0.250000 0.010000 0.100000
0.260000 0.010000 0.100000
0.270000 0.010000 0.100000
0.280000 0.010000 0.100000
0.290000 0.010000 0.100000
0.010000 0.020000 0.100000
0.020000 0.020000 0.100000
0.030000 0.020000 0.100000
0.040000 0.020000 0.100000
0.050000 0.020000 0.100000
0.060000 0.020000 0.100000
0.070000 0.020000 0.100000
0.080000 0.020000 0.100000
0.090000 0.020000 0.100000
0.100000 0.020000 0.100000
0.110000 0.020000 0.100000
0.120000 0.020000 0.100000
0.130000 0.020000 0.100000
0.140000 0.020000 0.100000
0.150000 0.020000 0.100000
0.160000 0.020000 0.100000
0.170000 0.020000 0.100000
0.180000 0.020000 0.100000
0.190000 0.020000 0.100000
0.200000 0.020000 0.100000
0.210000 0.020000 0.100000
0.220000 0.020000 0.100000
0.230000 0.020000 0.100000
0.240000 0.020000 0.100000
0.250000 0.020000 0.100000
0.260000 0.020000 0.100000
0.270000 0.020000 0.100000
0.280000 0.020000 0.100000
0.290000 0.020000 0.100000
0.300000 0.000000 0.000000
0.300000 0.000000 0.010000
0.300000 0.000000 0.020000
0.300000 0.000000 0.030000
0.300000 0.000000 0.040000
0.300000 0.000000 0.050000
0.300000 0.000000 0.060000
0.300000 0.000000 0.070000
0.300000 0.000000 0.080000
0.300000 0.000000 0.090000
0.000000 0.000000 0.090000
0.000000 0.000000 0.080000
0.000000 0.000000 0.050000
0.000000 0.000000 0.040000
0.000000 0.000000 0.030000
0.000000 0.000000 0.000000
0.010000 0.000000 0.000000
0.020000 0.000000 0.000000
0.030000 0.000000 0.000000
0.040000 0.000000 0.000000
0.050000 0.000000 0.000000
0.060000 0.000000 0.000000
0.070000 0.000000 0.000000
0.080000 0.000000 0.000000
0.090000 0.000000 0.000000
0.100000 0.000000 0.000000
0.110000 0.000000 0.000000
0.120000 0.000000 0.000000
0.130000 0.000000 0.000000
0.140000 0.000000 0.000000
0.150000 0.000000 0.000000
0.160000 0.000000 0.000000
0.170000 0.000000 0.000000
0.180000 0.000000 0.000000
0.190000 0.000000 0.000000
0.200000 0.000000 0.000000
0.210000 0.000000 0.000000
0.220000 0.000000 0.000000
0.230000 0.000000 0.000000
0.240000 0.000000 0.000000
0.250000 0.000000 0.000000
0.260000 0.000000 0.000000
0.270000 0.000000 0.000000
0.280000 0.000000 0.000000
0.290000 0.000000 0.000000
0.290000 0.000000 0.010000
0.290000 0.000000 0.020000
0.290000 0.000000 0.030000
0.290000 0.000000 0.040000
0.290000 0.000000 0.050000
0.290000 0.000000 0.060000
0.290000 0.000000 0.070000
0.290000 0.000000 0.080000
0.290000 0.000000 0.090000
0.280000 0.000000 0.010000
0.280000 0.000000 0.020000
0.280000 0.000000 0.030000
0.280000 0.000000 0.040000
0.280000 0.000000 0.050000
0.280000 0.000000 0.060000
0.280000 0.000000 0.070000
0.280000 0.000000 0.080000
0.280000 0.000000 0.090000
0.270000 0.000000 0.010000
0.270000 0.000000 0.020000
0.270000 0.000000 0.030000
0.270000 0.000000 0.040000
0.270000 0.000000 0.050000
0.270000 0.000000 0.060000
0.270000 0.000000 0.070000
0.270000 0.000000 0.080000
0.270000 0.000000 0.090000
0.260000 0.000000 0.010000
0.260000 0.000000 0.020000
0.260000 0.000000 0.030000
0.260000 0.000000 0.040000
0.260000 0.000000 0.050000
0.260000 0.000000 0.060000
0.260000 0.000000 0.070000
0.260000 0.000000 0.080000
0.260000 0.000000 0.090000
0.250000 0.000000 0.010000
0.250000 0.000000 0.020000
0.250000 0.000000 0.030000
0.250000 0.000000 0.040000
0.250000 0.000000 0.050000
0.250000 0.000000 0.060000
0.250000 0.000000 0.070000
0.250000 0.000000 0.080000
0.250000 0.000000 0.090000
0.240000 0.000000 0.010000
0.240000 0.000000 0.020000
0.240000 0.000000 0.030000
0.240000 0.000000 0.040000
0.240000 0.000000 0.050000
0.240000 0.000000 0.060000
0.240000 0.000000 0.070000
0.240000 0.000000 0.080000
0.240000 0.000000 0.090000
0.230000 0.000000 0.010000
0.230000 0.000000 0.020000
0.230000 0.000000 0.030000
0.230000 0.000000 0.040000
0.230000 0.000000 0.050000
0.230000 0.000000 0.060000
0.230000 0.000000 0.070000
0.230000 0.000000 0.080000
0.230000 0.000000 0.090000
0.220000 0.000000 0.010000
0.220000 0.000000 0.020000
0.220000 0.000000 0.030000
0.220000 0.000000 0.040000
0.220000 0.000000 0.050000
0.220000 0.000000 0.060000
0.220000 0.000000 0.070000
0.220000 0.000000 0.080000
0.220000 0.000000 0.090000
0.210000 0.000000 0.010000
0.210000 0.000000 0.020000
0.210000 0.000000 0.030000
0.210000 0.000000 0.040000
0.210000 0.000000 0.050000
0.210000 0.000000 0.060000
0.210000 0.000000 0.070000
0.210000 0.000000 0.080000
0.210000 0.000000 0.090000
0.200000 0.000000 0.010000
0.200000 0.000000 0.020000
0.200000 0.000000 0.030000
0.200000 0.000000 0.040000
0.200000 0.000000 0.050000
0.200000 0.000000 0.060000
0.200000 0.000000 0.070000
0.200000 0.000000 0.080000
0.200000 0.000000 0.090000
0.190000 0.000000 0.010000
0.190000 0.000000 0.020000
0.190000 0.000000 0.030000
0.190000 0.000000 0.040000
0.190000 0.000000 0.050000
0.190000 0.000000 0.060000
0.190000 0.000000 0.070000
0.190000 0.000000 0.080000
0.190000 0.000000 0.090000
0.180000 0.000000 0.010000
0.180000 0.000000 0.020000
0.180000 0.000000 0.030000
0.180000 0.000000 0.040000
0.180000 0.000000 0.050000
0.180000 0.000000 0.060000
0.180000 0.000000 0.070000
0.180000 0.000000 0.080000
0.180000 0.000000 0.090000
0.170000 0.000000 0.010000
0.170000 0.000000 0.020000
0.170000 0.000000 0.030000
0.170000 0.000000 0.040000
0.170000 0.000000 0.050000
0.170000 0.000000 0.060000
0.170000 0.000000 0.070000
0.170000 0.000000 0.080000
0.170000 0.000000 0.090000
0.160000 0.000000 0.010000
0.160000 0.000000 0.020000
0.160000 0.000000 0.030000
0.160000 0.000000 0.040000
0.160000 0.000000 0.050000
0.160000 0.000000 0.060000
0.160000 0.000000 0.070000
0.160000 0.000000 0.080000
0.160000 0.000000 0.090000
0.150000 0.000000 0.010000
0.150000 0.000000 0.020000
0.150000 0.000000 0.030000
0.150000 0.000000 0.040000
0.150000 0.000000 0.050000
0.150000 0.000000 0.060000
0.150000 0.000000 0.070000
0.150000 0.000000 0.080000
0.150000 0.000000 0.090000
0.140000 0.000000 0.010000
0.140000 0.000000 0.020000
0.140000 0.000000 0.030000
0.140000 0.000000 0.040000
0.140000 0.000000 0.050000
0.140000 0.000000 0.060000
0.140000 0.000000 0.070000
0.140000 0.000000 0.080000
0.140000 0.000000 0.090000
0.130000 0.000000 0.010000
0.130000 0.000000 0.020000
0.130000 0.000000 0.030000
0.130000 0.000000 0.040000
0.130000 0.000000 0.050000
0.130000 0.000000 0.060000
0.130000 0.000000 0.070000
0.130000 0.000000 0.080000
0.130000 0.000000 0.090000
0.120000 0.000000 0.010000
0.120000 0.000000 0.020000
0.120000 0.000000 0.030000
0.120000 0.000000 0.040000
0.120000 0.000000 0.050000
0.120000 0.000000 0.060000
0.120000 0.000000 0.070000
0.120000 0.000000 0.080000
0.120000 0.000000 0.090000
0.110000 0.000000 0.010000
0.110000 0.000000 0.020000
0.110000 0.000000 0.030000
0.110000 0.000000 0.040000
0.110000 0.000000 0.050000
0.110000 0.000000 0.060000
0.110000 0.000000 0.070000
0.110000 0.000000 0.080000
0.110000 0.000000 0.090000
0.100000 0.000000 0.010000
0.100000 0.000000 0.020000
0.100000 0.000000 0.030000
0.100000 0.000000 0.040000
0.100000 0.000000 0.050000
0.100000 0.000000 0.060000
0.100000 0.000000 0.070000
0.100000 0.000000 0.080000
0.100000 0.000000 0.090000
0.090000 0.000000 0.010000
0.090000 0.000000 0.020000
0.090000 0.000000 0.030000
0.090000 0.000000 0.040000
0.090000 0.000000 0.050000
0.090000 0.000000 0.060000
0.090000 0.000000 0.070000
0.090000 0.000000 0.080000
0.090000 0.000000 0.090000
0.080000 0.000000 0.010000
0.080000 0.000000 0.020000
0.080000 0.000000 0.030000
0.080000 0.000000 0.040000
0.080000 0.000000 0.050000
0.080000 0.000000 0.060000
0.080000 0.000000 0.070000
0.080000 0.000000 0.080000
0.080000 0.000000 0.090000
0.070000 0.000000 0.010000
0.070000 0.000000 0.020000
0.070000 0.000000 0.030000
0.070000 0.000000 0.040000
0.070000 0.000000 0.050000
0.070000 0.000000 0.060000
0.070000 0.000000 0.070000
0.070000 0.000000 0.080000
0.070000 0.000000 0.090000
0.060000 0.000000 0.010000
0.060000 0.000000 0.020000
0.060000 0.000000 0.030000
0.060000 0.000000 0.040000
0.060000 0.000000 0.050000
0.060000 0.000000 0.060000
0.060000 0.000000 0.070000
0.060000 0.000000 0.080000
0.060000 0.000000 0.090000
0.050000 0.000000 0.010000
0.050000 0.000000 0.020000
0.050000 0.000000 0.030000
0.050000 0.000000 0.040000
0.050000 0.000000 0.050000
0.050000 0.000000 0.060000
0.050000 0.000000 0.070000
0.050000 0.000000 0.080000
0.050000 0.000000 0.090000
0.040000 0.000000 0.010000
0.040000 0.000000 0.020000
0.040000 0.000000 0.030000
0.040000 0.000000 0.040000
0.040000 0.000000 0.050000
0.040000 0.000000 0.060000
0.040000 0.000000 0.070000
0.040000 0.000000 0.080000
0.040000 0.000000 0.090000
0.030000 0.000000 0.010000
0.030000 0.000000 0.020000
0.030000 0.000000 0.030000
0.030000 0.000000 0.040000
0.030000 0.000000 0.050000
0.030000 0.000000 0.060000
0.030000 0.000000 0.070000
0.030000 0.000000 0.080000
0.030000 0.000000 0.090000
0.020000 0.000000 0.010000
0.020000 0.000000 0.020000
0.020000 0.000000 0.030000
0.020000 0.000000 0.040000
0.020000 0.000000 0.050000
0.020000 0.000000 0.060000
0.020000 0.000000 0.070000
0.020000 0.000000 0.080000
0.020000 0.000000 0.090000
0.010000 0.000000 0.010000
0.010000 0.000000 0.020000
0.010000 0.000000 0.030000
0.010000 0.000000 0.040000
0.010000 0.000000 0.050000
0.010000 0.000000 0.060000
0.010000 0.000000 0.070000
0.010000 0.000000 0.080000
0.010000 0.000000 0.090000
0.000000 0.030000 0.000000
0.000000 0.030000 0.060000
0.000000 0.030000 0.090000
0.300000 0.030000 0.090000
0.300000 0.030000 0.080000
0.300000 0.030000 0.070000
0.300000 0.030000 0.060000
0.300000 0.030000 0.050000
0.300000 0.030000 0.040000
0.300000 0.030000 0.030000
0.300000 0.030000 0.020000
0.300000 0.030000 0.010000
0.300000 0.030000 0.000000
0.290000 0.030000 0.000000
0.280000 0.030000 0.000000
0.270000 0.030000 0.000000
0.260000 0.030000 0.000000
0.250000 0.030000 0.000000
0.240000 0.030000 0.000000
0.230000 0.030000 0.000000
0.220000 0.030000 0.000000
0.210000 0.030000 0.000000
0.200000 0.030000 0.000000
0.190000 0.030000 0.000000
0.180000 0.030000 0.000000
0.170000 0.030000 0.000000
0.160000 0.030000 0.000000
0.150000 0.030000 0.000000
0.140000 0.030000 0.000000
0.130000 0.030000 0.000000
0.120000 0.030000 0.000000
0.110000 0.030000 0.000000
0.100000 0.030000 0.000000
0.090000 0.030000 0.000000
0.080000 0.030000 0.000000
0.070000 0.030000 0.000000
0.060000 0.030000 0.000000
0.050000 0.030000 0.000000
0.040000 0.030000 0.000000
0.030000 0.030000 0.000000
0.020000 0.030000 0.000000
0.010000 0.030000 0.000000
0.010000 0.030000 0.010000
0.010000 0.030000 0.020000
0.010000 0.030000 0.030000
0.010000 0.030000 0.040000
0.010000 0.030000 0.050000
0.010000 0.030000 0.060000
0.010000 0.030000 0.070000
0.010000 0.030000 0.080000
0.010000 0.030000 0.090000
0.020000 0.030000 0.010000
0.020000 0.030000 0.020000
0.020000 0.030000 0.030000
0.020000 0.030000 0.040000
0.020000 0.030000 0.050000
0.020000 0.030000 0.060000
0.020000 0.030000 0.070000
0.020000 0.030000 0.080000
0.020000 0.030000 0.090000
0.030000 0.030000 0.010000
0.030000 0.030000 0.020000
0.030000 0.030000 0.030000
0.030000 0.030000 0.040000
0.030000 0.030000 0.050000
0.030000 0.030000 0.060000
0.030000 0.030000 0.070000
0.030000 0.030000 0.080000
0.030000 0.030000 0.090000
0.040000 0.030000 0.010000
0.040000 0.030000 0.020000
0.040000 0.030000 0.030000
0.040000 0.030000 0.040000
0.040000 0.030000 0.050000
0.040000 0.030000 0.060000
0.040000 0.030000 0.070000
0.040000 0.030000 0.080000
0.040000 0.030000 0.090000
0.050000 0.030000 0.010000
0.050000 0.030000 0.020000
0.050000 0.030000 0.030000
0.050000 0.030000 0.040000
0.050000 0.030000 0.050000
0.050000 0.030000 0.060000
0.050000 0.030000 0.070000
0.050000 0.030000 0.080000
0.050000 0.030000 0.090000
0.060000 0.030000 0.010000
0.060000 0.030000 0.020000
0.060000 0.030000 0.030000
0.060000 0.030000 0.040000
0.060000 0.030000 0.050000
0.060000 0.030000 0.060000
0.060000 0.030000 0.070000
0.060000 0.030000 0.080000
0.060000 0.030000 0.090000
0.070000 0.030000 0.010000
0.070000 0.030000 0.020000
0.070000 0.030000 0.030000
0.070000 0.030000 0.040000
0.070000 0.030000 0.050000
0.070000 0.030000 0.060000
0.070000 0.030000 0.070000
0.070000 0.030000 0.080000
0.070000 0.030000 0.090000
0.080000 0.030000 0.010000
0.080000 0.030000 0.020000
0.080000 0.030000 0.030000
0.080000 0.030000 0.040000
0.080000 0.030000 0.050000
0.080000 0.030000 0.060000
0.080000 0.030000 0.070000
0.080000 0.030000 0.080000
0.080000 0.030000 0.090000
0.090000 0.030000 0.010000
0.090000 0.030000 0.020000
0.090000 0.030000 0.030000
0.090000 0.030000 0.040000
0.090000 0.030000 0.050000
0.090000 0.030000 0.060000
0.090000 0.030000 0.070000
0.090000 0.030000 0.080000
0.090000 0.030000 0.090000
0.100000 0.030000 0.010000
0.100000 0.030000 0.020000
0.100000 0.030000 0.030000
0.100000 0.030000 0.040000
0.100000 0.030000 0.050000
0.100000 0.030000 0.060000
0.100000 0.030000 0.070000
0.100000 0.030000 0.080000
0.100000 0.030000 0.090000
0.110000 0.030000 0.010000
0.110000 0.030000 0.020000
0.110000 0.030000 0.030000
0.110000 0.030000 0.040000
0.110000 0.030000 0.050000
0.110000 0.030000 0.060000
0.110000 0.030000 0.070000
0.110000 0.030000 0.080000
0.110000 0.030000 0.090000
0.120000 0.030000 0.010000
0.120000 0.030000 0.020000
0.120000 0.030000 0.030000
0.120000 0.030000 0.040000
0.120000 0.030000 0.050000
0.120000 0.030000 0.060000
0.120000 0.030000 0.070000
0.120000 0.030000 0.080000
0.120000 0.030000 0.090000
0.130000 0.030000 0.010000
0.130000 0.030000 0.020000
0.130000 0.030000 0.030000
0.130000 0.030000 0.040000
0.130000 0.030000 0.050000
0.130000 0.030000 0.060000
0.130000 0.030000 0.070000
0.130000 0.030000 0.080000
0.130000 0.030000 0.090000
0.140000 0.030000 0.010000
0.140000 0.030000 0.020000
0.140000 0.030000 0.030000
0.140000 0.030000 0.040000
0.140000 0.030000 0.050000
0.140000 0.030000 0.060000
0.140000 0.030000 0.070000
0.140000 0.030000 0.080000
0.140000 0.030000 0.090000
0.150000 0.030000 0.010000
0.150000 0.030000 0.020000
0.150000 0.030000 0.030000
0.150000 0.030000 0.040000
0.150000 0.030000 0.050000
0.150000 0.030000 0.060000
0.150000 0.030000 0.070000
0.150000 0.030000 0.080000
0.150000 0.030000 0.090000
0.160000 0.030000 0.010000
0.160000 0.030000 0.020000
0.160000 0.030000 0.030000
0.160000 0.030000 0.040000
0.160000 0.030000 0.050000
0.160000 0.030000 0.060000
0.160000 0.030000 0.070000
0.160000 0.030000 0.080000
0.160000 0.030000 0.090000
0.170000 0.030000 0.010000
0.170000 0.030000 0.020000
0.170000 0.030000 0.030000
0.170000 0.030000 0.040000
0.170000 0.030000 0.050000
0.170000 0.030000 0.060000
0.170000 0.030000 0.070000
0.170000 0.030000 0.080000
0.170000 0.030000 0.090000
0.180000 0.030000 0.010000
0.180000 0.030000 0.020000
0.180000 0.030000 0.030000
0.180000 0.030000 0.040000
0.180000 0.030000 0.050000
0.180000 0.030000 0.060000
0.180000 0.030000 0.070000
0.180000 0.030000 0.080000
0.180000 0.030000 0.090000
0.190000 0.030000 0.010000
0.190000 0.030000 0.020000
0.190000 0.030000 0.030000
0.190000 0.030000 0.040000
0.190000 0.030000 0.050000
0.190000 0.030000 0.060000
0.190000 0.030000 0.070000
0.190000 0.030000 0.080000
0.190000 0.030000 0.090000
0.200000 0.030000 0.010000
0.200000 0.030000 0.020000
0.200000 0.030000 0.030000
0.200000 0.030000 0.040000
0.200000 0.030000 0.050000
0.200000 0.030000 0.060000
0.200000 0.030000 0.070000
0.200000 0.030000 0.080000
0.200000 0.030000 0.090000
0.210000 0.030000 0.010000
0.210000 0.030000 0.020000
0.210000 0.030000 0.030000
0.210000 0.030000 0.040000
0.210000 0.030000 0.050000
0.210000 0.030000 0.060000
0.210000 0.030000 0.070000
0.210000 0.030000 0.080000
0.210000 0.030000 0.090000
0.220000 0.030000 0.010000
0.220000 0.030000 0.020000
0.220000 0.030000 0.030000
0.220000 0.030000 0.040000
0.220000 0.030000 0.050000
0.220000 0.030000 0.060000
0.220000 0.030000 0.070000
0.220000 0.030000 0.080000
0.220000 0.030000 0.090000
0.230000 0.030000 0.010000
0.230000 0.030000 0.020000
0.230000 0.030000 0.030000
0.230000 0.030000 0.040000
0.230000 0.030000 0.050000
0.230000 0.030000 0.060000
0.230000 0.030000 0.070000
0.230000 0.030000 0.080000
0.230000 0.030000 0.090000
0.240000 0.030000 0.010000
0.240000 0.030000 0.020000
0.240000 0.030000 0.030000
0.240000 0.030000 0.040000
0.240000 0.030000 0.050000
0.240000 0.030000 0.060000
0.240000 0.030000 0.070000
0.240000 0.030000 0.080000
0.240000 0.030000 0.090000
0.250000 0.030000 0.010000
0.250000 0.030000 0.020000
0.250000 0.030000 0.030000
0.250000 0.030000 0.040000
0.250000 0.030000 0.050000
0.250000 0.030000 0.060000
0.250000 0.030000 0.070000
0.250000 0.030000 0.080000
0.250000 0.030000 0.090000
0.260000 0.030000 0.010000
0.260000 0.030000 0.020000
0.260000 0.030000 0.030000
0.260000 0.030000 0.040000
0.260000 0.030000 0.050000
0.260000 0.030000 0.060000
0.260000 0.030000 0.070000
0.260000 0.030000 0.080000
0.260000 0.030000 0.090000
0.270000 0.030000 0.010000
0.270000 0.030000 0.020000
0.270000 0.030000 0.030000
0.270000 0.030000 0.040000
0.270000 0.030000 0.050000
0.270000 0.030000 0.060000
0.270000 0.030000 0.070000
0.270000 0.030000 0.080000
0.270000 0.030000 0.090000
0.280000 0.030000 0.010000
0.280000 0.030000 0.020000
0.280000 0.030000 0.030000
0.280000 0.030000 0.040000
0.280000 0.030000 0.050000
0.280000 0.030000 0.060000
0.280000 0.030000 0.070000
0.280000 0.030000 0.080000
0.280000 0.030000 0.090000
0.290000 0.030000 0.010000
0.290000 0.030000 0.020000
0.290000 0.030000 0.030000
0.290000 0.030000 0.040000
0.290000 0.030000 0.050000
0.290000 0.030000 0.060000
0.290000 0.030000 0.070000
0.290000 0.030000 0.080000
0.290000 0.030000 0.090000
0.300000 0.020000 0.000000
0.300000 0.010000 0.000000
0.290000 0.020000 0.000000
0.290000 0.010000 0.000000
0.280000 0.020000 0.000000
0.280000 0.010000 0.000000
0.270000 0.020000 0.000000
0.270000 0.010000 0.000000
0.260000 0.020000 0.000000
0.260000 0.010000 0.000000
0.250000 0.020000 0.000000
0.250000 0.010000 0.000000
0.240000 0.020000 0.000000
0.240000 0.010000 0.000000
0.230000 0.020000 0.000000
0.230000 0.010000 0.000000
0.220000 0.020000 0.000000
0.220000 0.010000 0.000000
0.210000 0.020000 0.000000
0.210000 0.010000 0.000000
0.200000 0.020000 0.000000
0.200000 0.010000 0.000000
0.190000 0.020000 0.000000
0.190000 0.010000 0.000000
0.180000 0.020000 0.000000
0.180000 0.010000 0.000000
0.170000 0.020000 0.000000
0.170000 0.010000 0.000000
0.160000 0.020000 0.000000
0.160000 0.010000 0.000000
0.150000 0.020000 0.000000
0.150000 0.010000 0.000000
0.140000 0.020000 0.000000
0.140000 0.010000 0.000000
0.130000 0.020000 0.000000
0.130000 0.010000 0.000000
0.120000 0.020000 0.000000
0.120000 0.010000 0.000000
0.110000 0.020000 0.000000
0.110000 0.010000 0.000000
0.100000 0.020000 0.000000
0.100000 0.010000 0.000000
0.090000 0.020000 0.000000
0.090000 0.010000 0.000000
0.080000 0.020000 0.000000
0.080000 0.010000 0.000000
0.070000 0.020000 0.000000
0.070000 0.010000 0.000000
0.060000 0.020000 0.000000
0.060000 0.010000 0.000000
0.050000 0.020000 0.000000
0.050000 0.010000 0.000000
0.040000 0.020000 0.000000
0.040000 0.010000 0.000000
0.030000 0.020000 0.000000
0.030000 0.010000 0.000000
0.020000 0.020000 0.000000
0.020000 0.010000 0.000000
0.010000 0.020000 0.000000
0.010000 0.010000 0.000000
0.300000 0.010000 0.010000
0.300000 0.020000 0.010000
0.300000 0.010000 0.020000
0.300000 0.020000 0.020000
0.300000 0.010000 0.030000
0.300000 0.020000 0.030000
0.300000 0.010000 0.040000
0.300000 0.020000 0.040000
0.300000 0.010000 0.050000
0.300000 0.020000 0.050000
0.300000 0.010000 0.060000
0.300000 0.020000 0.060000
0.300000 0.010000 0.070000
0.300000 0.020000 0.070000
0.300000 0.010000 0.080000
0.300000 0.020000 0.080000
0.300000 0.010000 0.090000
0.300000 0.020000 0.090000
0.000000 0.010000 0.000000
0.000000 0.020000 0.000000
0.000000 0.030000 0.010000
0.000000 0.030000 0.020000
0.000000 0.030000 0.030000
0.000000 0.030000 0.040000
0.000000 0.030000 0.050000
0.000000 0.030000 0.070000
0.000000 0.030000 0.080000
0.000000 0.000000 0.100000
0.000000 0.000000 0.070000
0.000000 0.000000 0.060000
0.000000 0.000000 0.020000
0.000000 0.000000 0.010000
0.000000 0.010000 0.010000
0.000000 0.020000 0.010000
0.000000 0.010000 0.020000
0.000000 0.020000 0.020000
0.000000 0.010000 0.030000
0.000000 0.020000 0.030000
0.000000 0.010000 0.040000
0.000000 0.020000 0.040000
0.000000 0.010000 0.050000
0.000000 0.020000 0.050000
0.000000 0.010000 0.060000
0.000000 0.020000 0.060000
0.000000 0.010000 0.070000
0.000000 0.020000 0.070000
0.000000 0.010000 0.080000
0.000000 0.020000 0.080000
0.000000 0.010000 0.090000
0.000000 0.020000 0.090000
0.010000 0.010000 0.010000
0.010000 0.020000 0.010000
0.010000 0.010000 0.020000
0.010000 0.020000 0.020000
0.010000 0.010000 0.030000
0.010000 0.020000 0.030000
0.010000 0.010000 0.040000
0.010000 0.020000 0.040000
0.010000 0.010000 0.050000
0.010000 0.020000 0.050000
0.010000 0.010000 0.060000
0.010000 0.020000 0.060000
0.010000 0.010000 0.070000
0.010000 0.020000 0.070000
0.010000 0.010000 0.080000
0.010000 0.020000 0.080000
0.010000 0.010000 0.090000
0.010000 0.020000 0.090000
0.020000 0.010000 0.010000
0.020000 0.020000 0.010000
0.020000 0.010000 0.020000
0.020000 0.020000 0.020000
0.020000 0.010000 0.030000
0.020000 0.020000 0.030000
0.020000 0.010000 0.040000
0.020000 0.020000 0.040000
0.020000 0.010000 0.050000
0.020000 0.020000 0.050000
0.020000 0.010000 0.060000
0.020000 0.020000 0.060000
0.020000 0.010000 0.070000
0.020000 0.020000 0.070000
0.020000 0.010000 0.080000
0.020000 0.020000 0.080000
0.020000 0.010000 0.090000
0.020000 0.020000 0.090000
0.030000 0.010000 0.010000
0.030000 0.020000 0.010000
0.030000 0.010000 0.020000
0.030000 0.020000 0.020000
0.030000 0.010000 0.030000
0.030000 0.020000 0.030000
0.030000 0.010000 0.040000
0.030000 0.020000 0.040000
0.030000 0.010000 0.050000
0.030000 0.020000 0.050000
0.030000 0.010000 0.060000
0.030000 0.020000 0.060000
0.030000 0.010000 0.070000
0.030000 0.020000 0.070000
0.030000 0.010000 0.080000
0.030000 0.020000 0.080000
0.030000 0.010000 0.090000
0.030000 0.020000 0.090000
0.040000 0.010000 0.010000
0.040000 0.020000 0.010000
0.040000 0.010000 0.020000
0.040000 0.020000 0.020000
0.040000 0.010000 0.030000
0.040000 0.020000 0.030000
0.040000 0.010000 0.040000
0.040000 0.020000 0.040000
0.040000 0.010000 0.050000
0.040000 0.020000 0.050000
0.040000 0.010000 0.060000
0.040000 0.020000 0.060000
0.040000 0.010000 0.070000
0.040000 0.020000 0.070000
0.040000 0.010000 0.080000
0.040000 0.020000 0.080000
0.040000 0.010000 0.090000
0.040000 0.020000 0.090000
0.050000 0.010000 0.010000
0.050000 0.020000 0.010000
0.050000 0.010000 0.020000
0.050000 0.020000 0.020000
0.050000 0.010000 0.030000
0.050000 0.020000 0.030000
0.050000 0.010000 0.040000
0.050000 0.020000 0.040000
0.050000 0.010000 0.050000
0.050000 0.020000 0.050000
0.050000 0.010000 0.060000
0.050000 0.020000 0.060000
0.050000 0.010000 0.070000
0.050000 0.020000 0.070000
0.050000 0.010000 0.080000
0.050000 0.020000 0.080000
0.050000 0.010000 0.090000
0.050000 0.020000 0.090000
0.060000 0.010000 0.010000
0.060000 0.020000 0.010000
0.060000 0.010000 0.020000
0.060000 0.020000 0.020000
0.060000 0.010000 0.030000
0.060000 0.020000 0.030000
0.060000 0.010000 0.040000
0.060000 0.020000 0.040000
0.060000 0.010000 0.050000
0.060000 0.020000 0.050000
0.060000 0.010000 0.060000
0.060000 0.020000 0.060000
0.060000 0.010000 0.070000
0.060000 0.020000 0.070000
0.060000 0.010000 0.080000
0.060000 0.020000 0.080000
0.060000 0.010000 0.090000
0.060000 0.020000 0.090000
0.070000 0.010000 0.010000
0.070000 0.020000 0.010000
0.070000 0.010000 0.020000
0.070000 0.020000 0.020000
0.070000 0.010000 0.030000
0.070000 0.020000 0.030000
0.070000 0.010000 0.040000
0.070000 0.020000 0.040000
0.070000 0.010000 0.050000
0.070000 0.020000 0.050000
0.070000 0.010000 0.060000
0.070000 0.020000 0.060000
0.070000 0.010000 0.070000
0.070000 0.020000 0.070000
0.070000 0.010000 0.080000
0.070000 0.020000 0.080000
0.070000 0.010000 0.090000
0.070000 0.020000 0.090000
0.080000 0.010000 0.010000
0.080000 0.020000 0.010000
0.080000 0.010000 0.020000
0.080000 0.020000 0.020000
0.080000 0.010000 0.030000
0.080000 0.020000 0.030000
0.080000 0.010000 0.040000
0.080000 0.020000 0.040000
0.080000 0.010000 0.050000
0.080000 0.020000 0.050000
0.080000 0.010000 0.060000
0.080000 0.020000 0.060000
0.080000 0.010000 0.070000
0.080000 0.020000 0.070000
0.080000 0.010000 0.080000
0.080000 0.020000 0.080000
0.080000 0.010000 0.090000
0.080000 0.020000 0.090000
0.090000 0.010000 0.010000
0.090000 0.020000 0.010000
0.090000 0.010000 0.020000
0.090000 0.020000 0.020000
0.090000 0.010000 0.030000
0.090000 0.020000 0.030000
0.090000 0.010000 0.040000
0.090000 0.020000 0.040000
0.090000 0.010000 0.050000
0.090000 0.020000 0.050000
0.090000 0.010000 0.060000
0.090000 0.020000 0.060000
0.090000 0.010000 0.070000
0.090000 0.020000 0.070000
0.090000 0.010000 0.080000
0.090000 0.020000 0.080000
0.090000 0.010000 0.090000
0.090000 0.020000 0.090000
0.100000 0.010000 0.010000
0.100000 0.020000 0.010000
0.100000 0.010000 0.020000
0.100000 0.020000 0.020000
0.100000 0.010000 0.030000
0.100000 0.020000 0.030000
0.100000 0.010000 0.040000
0.100000 0.020000 0.040000
0.100000 0.010000 0.050000
0.100000 0.020000 0.050000
0.100000 0.010000 0.060000
0.100000 0.020000 0.060000
0.100000 0.010000 0.070000
0.100000 0.020000 0.070000
0.100000 0.010000 0.080000
0.100000 0.020000 0.080000
0.100000 0.010000 0.090000
0.100000 0.020000 0.090000
0.110000 0.010000 0.010000
0.110000 0.020000 0.010000
0.110000 0.010000 0.020000
0.110000 0.020000 0.020000
0.110000 0.010000 0.030000
0.110000 0.020000 0.030000
0.110000 0.010000 0.040000
0.110000 0.020000 0.040000
0.110000 0.010000 0.050000
0.110000 0.020000 0.050000
0.110000 0.010000 0.060000
0.110000 0.020000 0.060000
0.110000 0.010000 0.070000
0.110000 0.020000 0.070000
0.110000 0.010000 0.080000
0.110000 0.020000 0.080000
0.110000 0.010000 0.090000
0.110000 0.020000 0.090000
0.120000 0.010000 0.010000
0.120000 0.020000 0.010000
0.120000 0.010000 0.020000
0.120000 0.020000 0.020000
0.120000 0.010000 0.030000
0.120000 0.020000 0.030000
0.120000 0.010000 0.040000
0.120000 0.020000 0.040000
0.120000 0.010000 0.050000
0.120000 0.020000 0.050000
0.120000 0.010000 0.060000
0.120000 0.020000 0.060000
0.120000 0.010000 0.070000
0.120000 0.020000 0.070000
0.120000 0.010000 0.080000
0.120000 0.020000 0.080000
0.120000 0.010000 0.090000
0.120000 0.020000 0.090000
0.130000 0.010000 0.010000
0.130000 0.020000 0.010000
0.130000 0.010000 0.020000
0.130000 0.020000 0.020000
0.130000 0.010000 0.030000
0.130000 0.020000 0.030000
0.130000 0.010000 0.040000
0.130000 0.020000 0.040000
0.130000 0.010000 0.050000
0.130000 0.020000 0.050000
0.130000 0.010000 0.060000
0.130000 0.020000 0.060000
0.130000 0.010000 0.070000
0.130000 0.020000 0.070000
0.130000 0.010000 0.080000
0.130000 0.020000 0.080000
0.130000 0.010000 0.090000
0.130000 0.020000 0.090000
0.140000 0.010000 0.010000
0.140000 0.020000 0.010000
0.140000 0.010000 0.020000
0.140000 0.020000 0.020000
0.140000 0.010000 0.030000
0.140000 0.020000 0.030000
0.140000 0.010000 0.040000
0.140000 0.020000 0.040000
0.140000 0.010000 0.050000
0.140000 0.020000 0.050000
0.140000 0.010000 0.060000
0.140000 0.020000 0.060000
0.140000 0.010000 0.070000
0.140000 0.020000 0.070000
0.140000 0.010000 0.080000
0.140000 0.020000 0.080000
0.140000 0.010000 0.090000
0.140000 0.020000 0.090000
0.150000 0.010000 0.010000
0.150000 0.020000 0.010000
0.150000 0.010000 0.020000
0.150000 0.020000 0.020000
0.150000 0.010000 0.030000
0.150000 0.020000 0.030000
0.150000 0.010000 0.040000
0.150000 0.020000 0.040000
0.150000 0.010000 0.050000
0.150000 0.020000 0.050000
0.150000 0.010000 0.060000
0.150000 0.020000 0.060000
0.150000 0.010000 0.070000
0.150000 0.020000 0.070000
0.150000 0.010000 0.080000
0.150000 0.020000 0.080000
0.150000 0.010000 0.090000
0.150000 0.020000 0.090000
0.160000 0.010000 0.010000
0.160000 0.020000 0.010000
0.160000 0.010000 0.020000
0.160000 0.020000 0.020000
0.160000 0.010000 0.030000
0.160000 0.020000 0.030000
0.160000 0.010000 0.040000
0.160000 0.020000 0.040000
0.160000 0.010000 0.050000
0.160000 0.020000 0.050000
0.160000 0.010000 0.060000
0.160000 0.020000 0.060000
0.160000 0.010000 0.070000
0.160000 0.020000 0.070000
0.160000 0.010000 0.080000
0.160000 0.020000 0.080000
0.160000 0.010000 0.090000
0.160000 0.020000 0.090000
0.170000 0.010000 0.010000
0.170000 0.020000 0.010000
0.170000 0.010000 0.020000
0.170000 0.020000 0.020000
0.170000 0.010000 0.030000
0.170000 0.020000 0.030000
0.170000 0.010000 0.040000
0.170000 0.020000 0.040000
0.170000 0.010000 0.050000
0.170000 0.020000 0.050000
0.170000 0.010000 0.060000
0.170000 0.020000 0.060000
0.170000 0.010000 0.070000
0.170000 0.020000 0.070000
0.170000 0.010000 0.080000
0.170000 0.020000 0.080000
0.170000 0.010000 0.090000
0.170000 0.020000 0.090000
0.180000 0.010000 0.010000
0.180000 0.020000 0.010000
0.180000 0.010000 0.020000
0.180000 0.020000 0.020000
0.180000 0.010000 0.030000
0.180000 0.020000 0.030000
0.180000 0.010000 0.040000
0.180000 0.020000 0.040000
0.180000 0.010000 0.050000
0.180000 0.020000 0.050000
0.180000 0.010000 0.060000
0.180000 0.020000 0.060000
0.180000 0.010000 0.070000
0.180000 0.020000 0.070000
0.180000 0.010000 0.080000
0.180000 0.020000 0.080000
0.180000 0.010000 0.090000
0.180000 0.020000 0.090000
0.190000 0.010000 0.010000
0.190000 0.020000 0.010000
0.190000 0.010000 0.020000
0.190000 0.020000 0.020000
0.190000 0.010000 0.030000
0.190000 0.020000 0.030000
0.190000 0.010000 0.040000
0.190000 0.020000 0.040000
0.190000 0.010000 0.050000
0.190000 0.020000 0.050000
0.190000 0.010000 0.060000
0.190000 0.020000 0.060000
0.190000 0.010000 0.070000
0.190000 0.020000 0.070000
0.190000 0.010000 0.080000
0.190000 0.020000 0.080000
0.190000 0.010000 0.090000
0.190000 0.020000 0.090000
0.200000 0.010000 0.010000
0.200000 0.020000 0.010000
0.200000 0.010000 0.020000
0.200000 0.020000 0.020000
0.200000 0.010000 0.030000
0.200000 0.020000 0.030000
0.200000 0.010000 0.040000
0.200000 0.020000 0.040000
0.200000 0.010000 0.050000
0.200000 0.020000 0.050000
0.200000 0.010000 0.060000
0.200000 0.020000 0.060000
0.200000 0.010000 0.070000
0.200000 0.020000 0.070000
0.200000 0.010000 0.080000
0.200000 0.020000 0.080000
0.200000 0.010000 0.090000
0.200000 0.020000 0.090000
0.210000 0.010000 0.010000
0.210000 0.020000 0.010000
0.210000 0.010000 0.020000
0.210000 0.020000 0.020000
0.210000 0.010000 0.030000
0.210000 0.020000 0.030000
0.210000 0.010000 0.040000
0.210000 0.020000 0.040000
0.210000 0.010000 0.050000
0.210000 0.020000 0.050000
0.210000 0.010000 0.060000
0.210000 0.020000 0.060000
0.210000 0.010000 0.070000
0.210000 0.020000 0.070000
0.210000 0.010000 0.080000
0.210000 0.020000 0.080000
0.210000 0.010000 0.090000
0.210000 0.020000 0.090000
0.220000 0.010000 0.010000
0.220000 0.020000 0.010000
0.220000 0.010000 0.020000
0.220000 0.020000 0.020000
0.220000 0.010000 0.030000
0.220000 0.020000 0.030000
0.220000 0.010000 0.040000
0.220000 0.020000 0.040000
0.220000 0.010000 0.050000
0.220000 0.020000 0.050000
0.220000 0.010000 0.060000
0.220000 0.020000 0.060000
0.220000 0.010000 0.070000
0.220000 0.020000 0.070000
0.220000 0.010000 0.080000
0.220000 0.020000 0.080000
0.220000 0.010000 0.090000
0.220000 0.020000 0.090000
0.230000 0.010000 0.010000
0.230000 0.020000 0.010000
0.230000 0.010000 0.020000
0.230000 0.020000 0.020000
0.230000 0.010000 0.030000
0.230000 0.020000 0.030000
0.230000 0.010000 0.040000
0.230000 0.020000 0.040000
0.230000 0.010000 0.050000
0.230000 0.020000 0.050000
0.230000 0.010000 0.060000
0.230000 0.020000 0.060000
0.230000 0.010000 0.070000
0.230000 0.020000 0.070000
0.230000 0.010000 0.080000
0.230000 0.020000 0.080000
0.230000 0.010000 0.090000
0.230000 0.020000 0.090000
0.240000 0.010000 0.010000
0.240000 0.020000 0.010000
0.240000 0.010000 0.020000
0.240000 0.020000 0.020000
0.240000 0.010000 0.030000
0.240000 0.020000 0.030000
0.240000 0.010000 0.040000
0.240000 0.020000 0.040000
0.240000 0.010000 0.050000
0.240000 0.020000 0.050000
0.240000 0.010000 0.060000
0.240000 0.020000 0.060000
0.240000 0.010000 0.070000
0.240000 0.020000 0.070000
0.240000 0.010000 0.080000
0.240000 0.020000 0.080000
0.240000 0.010000 0.090000
0.240000 0.020000 0.090000
0.250000 0.010000 0.010000
0.250000 0.020000 0.010000
0.250000 0.010000 0.020000
0.250000 0.020000 0.020000
0.250000 0.010000 0.030000
0.250000 0.020000 0.030000
0.250000 0.010000 0.040000
0.250000 0.020000 0.040000
0.250000 0.010000 0.050000
0.250000 0.020000 0.050000
0.250000 0.010000 0.060000
0.250000 0.020000 0.060000
0.250000 0.010000 0.070000
0.250000 0.020000 0.070000
0.250000 0.010000 0.080000
0.250000 0.020000 0.080000
0.250000 0.010000 0.090000
0.250000 0.020000 0.090000
0.260000 0.010000 0.010000
0.260000 0.020000 0.010000
0.260000 0.010000 0.020000
0.260000 0.020000 0.020000
0.260000 0.010000 0.030000
0.260000 0.020000 0.030000
0.260000 0.010000 0.040000
0.260000 0.020000 0.040000
0.260000 0.010000 0.050000
0.260000 0.020000 0.050000
0.260000 0.010000 0.060000
0.260000 0.020000 0.060000
0.260000 0.010000 0.070000
0.260000 0.020000 0.070000
0.260000 0.010000 0.080000
0.260000 0.020000 0.080000
0.260000 0.010000 0.090000
0.260000 0.020000 0.090000
0.270000 0.010000 0.010000
0.270000 0.020000 0.010000
0.270000 0.010000 0.020000
0.270000 0.020000 0.020000
0.270000 0.010000 0.030000
0.270000 0.020000 0.030000
0.270000 0.010000 0.040000
0.270000 0.020000 0.040000
0.270000 0.010000 0.050000
0.270000 0.020000 0.050000
0.270000 0.010000 0.060000
0.270000 0.020000 0.060000
0.270000 0.010000 0.070000
0.270000 0.020000 0.070000
0.270000 0.010000 0.080000
0.270000 0.020000 0.080000
0.270000 0.010000 0.090000
0.270000 0.020000 0.090000
0.280000 0.010000 0.010000
0.280000 0.020000 0.010000
0.280000 0.010000 0.020000
0.280000 0.020000 0.020000
0.280000 0.010000 0.030000
0.280000 0.020000 0.030000
0.280000 0.010000 0.040000
0.280000 0.020000 0.040000
0.280000 0.010000 0.050000
0.280000 0.020000 0.050000
0.280000 0.010000 0.060000
0.280000 0.020000 0.060000
0.280000 0.010000 0.070000
0.280000 0.020000 0.070000
0.280000 0.010000 0.080000
0.280000 0.020000 0.080000
0.280000 0.010000 0.090000
0.280000 0.020000 0.090000
0.290000 0.010000 0.010000
0.290000 0.020000 0.010000
0.290000 0.010000 0.020000
0.290000 0.020000 0.020000
0.290000 0.010000 0.030000
0.290000 0.020000 0.030000
0.290000 0.010000 0.040000
0.290000 0.020000 0.040000
0.290000 0.010000 0.050000
0.290000 0.020000 0.050000
0.290000 0.010000 0.060000
0.290000 0.020000 0.060000
0.290000 0.010000 0.070000
0.290000 0.020000 0.070000
0.290000 0.010000 0.080000
0.290000 0.020000 0.080000
0.290000 0.010000 0.090000
0.290000 0.020000 0.090000


CELLS 900 8100
8 138 139 791 810 823 420 842 824 
8 810 791 790 811 824 842 843 825 
8 811 790 470 429 825 843 471 812 
8 823 420 842 824 822 421 844 826 
8 824 842 843 825 826 844 845 827 
8 825 843 471 812 827 845 472 813 
8 822 421 844 826 137 422 846 828 
8 826 844 845 827 828 846 847 829 
8 827 845 472 813 829 847 473 814 
8 137 422 846 828 136 423 848 830 
8 828 846 847 829 830 848 849 831 
8 829 847 473 814 831 849 474 815 
8 136 423 848 830 135 424 850 832 
8 830 848 849 831 832 850 851 833 
8 831 849 474 815 833 851 475 816 
8 135 424 850 832 821 425 852 834 
8 832 850 851 833 834 852 853 835 
8 833 851 475 816 835 853 476 430 
8 821 425 852 834 820 426 854 836 
8 834 852 853 835 836 854 855 837 
8 835 853 476 430 837 855 477 817 
8 820 426 854 836 134 427 856 838 
8 836 854 855 837 838 856 857 839 
8 837 855 477 817 839 857 478 818 
8 134 427 856 838 133 428 858 840 
8 838 856 857 839 840 858 859 841 
8 839 857 478 818 841 859 479 431 
8 133 428 858 840 819 0 65 64 
8 840 858 859 841 64 65 94 63 
8 841 859 479 431 63 94 61 62 
8 139 140 789 791 420 411 860 842 
8 791 789 788 790 842 860 861 843 
8 790 788 469 470 843 861 480 471 
8 420 411 860 842 421 412 862 844 
8 842 860 861 843 844 862 863 845 
8 843 861 480 471 845 863 481 472 
8 421 412 862 844 422 413 864 846 
8 844 862 863 845 846 864 865 847 
8 845 863 481 472 847 865 482 473 
8 422 413 864 846 423 414 866 848 
8 846 864 865 847 848 866 867 849 
8 847 865 482 473 849 867 483 474 
8 423 414 866 848 424 415 868 850 
8 848 866 867 849 850 868 869 851 
8 849 867 483 474 851 869 484 475 
8 424 415 868 850 425 416 870 852 
8 850 868 869 851 852 870 871 853 
8 851 869 484 475 853 871 485 476 
8 425 416 870 852 426 417 872 854 
8 852 870 871 853 854 872 873 855 
8 853 871 485 476 855 873 486 477 
8 426 417 872 854 427 418 874 856 
8 854 872 873 855 856 874 875 857 
8 855 873 486 477 857 875 487 478 
8 427 418 874 856 428 419 876 858 
8 856 874 875 857 858 876 877 859 
8 857 875 487 478 859 877 488 479 
8 428 419 876 858 0 1 66 65 
8 858 876 877 859 65 66 95 94 
8 859 877 488 479 94 95 60 61 
8 140 141 787 789 411 402 878 860 
8 789 787 786 788 860 878 879 861 
8 788 786 468 469 861 879 489 480 
8 411 402 878 860 412 403 880 862 
8 860 878 879 861 862 880 881 863 
8 861 879 489 480 863 881 490 481 
8 412 403 880 862 413 404 882 864 
8 862 880 881 863 864 882 883 865 
8 863 881 490 481 865 883 491 482 
8 413 404 882 864 414 405 884 866 
8 864 882 883 865 866 884 885 867 
8 865 883 491 482 867 885 492 483 
8 414 405 884 866 415 406 886 868 
8 866 884 885 867 868 886 887 869 
8 867 885 492 483 869 887 493 484 
8 415 406 886 868 416 407 888 870 
8 868 886 887 869 870 888 889 871 
8 869 887 493 484 871 889 494 485 
8 416 407 888 870 417 408 890 872 
8 870 888 889 871 872 890 891 873 
8 871 889 494 485 873 891 495 486 
8 417 408 890 872 418 409 892 874 
8 872 890 891 873 874 892 893 875 
8 873 891 495 486 875 893 496 487 
8 418 409 892 874 419 410 894 876 
8 874 892 893 875 876 894 895 877 
8 875 893 496 487 877 895 497 488 
8 419 410 894 876 1 2 67 66 
8 876 894 895 877 66 67 96 95 
8 877 895 497 488 95 96 59 60 
8 141 142 785 787 402 393 896 878 
8 787 785 784 786 878 896 897 879 
8 786 784 467 468 879 897 498 489 
8 402 393 896 878 403 394 898 880 
8 878 896 897 879 880 898 899 881 
8 879 897 498 489 881 899 499 490 
8 403 394 898 880 404 395 900 882 
8 880 898 899 881 882 900 901 883 
8 881 899 499 490 883 901 500 491 
8 404 395 900 882 405 396 902 884 
8 882 900 901 883 884 902 903 885 
8 883 901 500 491 885 903 501 492 
8 405 396 902 884 406 397 904 886 
8 884 902 903 885 886 904 905 887 
8 885 903 501 492 887 905 502 493 
8 406 397 904 886 407 398 906 888 
8 886 904 905 887 888 906 907 889 
8 887 905 502 493 889 907 503 494 
8 407 398 906 888 408 399 908 890 
8 888 906 907 889 890 908 909 891 
8 889 907 503 494 891 909 504 495 
8 408 399 908 890 409 400 910 892 
8 890 908 909 891 892 910 911 893 
8 891 909 504 495 893 911 505 496 
8 409 400 910 892 410 401 912 894 
8 892 910 911 893 894 912 913 895 
8 893 911 505 496 895 913 506 497 
8 410 401 912 894 2 3 68 67 
8 894 912 913 895 67 68 97 96 
8 895 913 506 497 96 97 58 59 
8 142 143 783 785 393 384 914 896 
8 785 783 782 784 896 914 915 897 
8 784 782 466 467 897 915 507 498 
8 393 384 914 896 394 385 916 898 
8 896 914 915 897 898 916 917 899 
8 897 915 507 498 899 917 508 499 
8 394 385 916 898 395 386 918 900 
8 898 916 917 899 900 918 919 901 
8 899 917 508 499 901 919 509 500 
8 395 386 918 900 396 387 920 902 
8 900 918 919 901 902 920 921 903 
8 901 919 509 500 903 921 510 501 
8 396 387 920 902 397 388 922 904 
8 902 920 921 903 904 922 923 905 
8 903 921 510 501 905 923 511 502 
8 397 388 922 904 398 389 924 906 
8 904 922 923 905 906 924 925 907 
8 905 923 511 502 907 925 512 503 
8 398 389 924 906 399 390 926 908 
8 906 924 925 907 908 926 927 909 
8 907 925 512 503 909 927 513 504 
8 399 390 926 908 400 391 928 910 
8 908 926 927 909 910 928 929 911 
8 909 927 513 504 911 929 514 505 
8 400 391 928 910 401 392 930 912 
8 910 928 929 911 912 930 931 913 
8 911 929 514 505 913 931 515 506 
8 401 392 930 912 3 4 69 68 
8 912 930 931 913 68 69 98 97 
8 913 931 515 506 97 98 57 58 
8 143 144 781 783 384 375 932 914 
8 783 781 780 782 914 932 933 915 
8 782 780 465 466 915 933 516 507 
8 384 375 932 914 385 376 934 916 
8 914 932 933 915 916 934 935 917 
8 915 933 516 507 917 935 517 508 
8 385 376 934 916 386 377 936 918 
8 916 934 935 917 918 936 937 919 
8 917 935 517 508 919 937 518 509 
8 386 377 936 918 387 378 938 920 
8 918 936 937 919 920 938 939 921 
8 919 937 518 509 921 939 519 510 
8 387 378 938 920 388 379 940 922 
8 920 938 939 921 922 940 941 923 
8 921 939 519 510 923 941 520 511 
8 388 379 940 922 389 380 942 924 
8 922 940 941 923 924 942 943 925 
8 923 941 520 511 925 943 521 512 
8 389 380 942 924 390 381 944 926 
8 924 942 943 925 926 944 945 927 
8 925 943 521 512 927 945 522 513 
8 390 381 944 926 391 382 946 928 
8 926 944 945 927 928 946 947 929 
8 927 945 522 513 929 947 523 514 
8 391 382 946 928 392 383 948 930 
8 928 946 947 929 930 948 949 931 
8 929 947 523 514 931 949 524 515 
8 392 383 948 930 4 5 70 69 
8 930 948 949 931 69 70 99 98 
8 931 949 524 515 98 99 56 57 
8 144 145 779 781 375 366 950 932 
8 781 779 778 780 932 950 951 933 
8 780 778 464 465 933 951 525 516 
8 375 366 950 932 376 367 952 934 
8 932 950 951 933 934 952 953 935 
8 933 951 525 516 935 953 526 517 
8 376 367 952 934 377 368 954 936 
8 934 952 953 935 936 954 955 937 
8 935 953 526 517 937 955 527 518 
8 377 368 954 936 378 369 956 938 
8 936 954 955 937 938 956 957 939 
8 937 955 527 518 939 957 528 519 
8 378 369 956 938 379 370 958 940 
8 938 956 957 939 940 958 959 941 
8 939 957 528 519 941 959 529 520 
8 379 370 958 940 380 371 960 942 
8 940 958 959 941 942 960 961 943 
8 941 959 529 520 943 961 530 521 
8 380 371 960 942 381 372 962 944 
8 942 960 961 943 944 962 963 945 
8 943 961 530 521 945 963 531 522 
8 381 372 962 944 382 373 964 946 
8 944 962 963 945 946 964 965 947 
8 945 963 531 522 947 965 532 523 
8 382 373 964 946 383 374 966 948 
8 946 964 965 947 948 966 967 949 
8 947 965 532 523 949 967 533 524 
8 383 374 966 948 5 6 71 70 
8 948 966 967 949 70 71 100 99 
8 949 967 533 524 99 100 55 56 
8 145 146 777 779 366 357 968 950 
8 779 777 776 778 950 968 969 951 
8 778 776 463 464 951 969 534 525 
8 366 357 968 950 367 358 970 952 
8 950 968 969 951 952 970 971 953 
8 951 969 534 525 953 971 535 526 
8 367 358 970 952 368 359 972 954 
8 952 970 971 953 954 972 973 955 
8 953 971 535 526 955 973 536 527 
8 368 359 972 954 369 360 974 956 
8 954 972 973 955 956 974 975 957 
8 955 973 536 527 957 975 537 528 
8 369 360 974 956 370 361 976 958 
8 956 974 975 957 958 976 977 959 
8 957 975 537 528 959 977 538 529 
8 370 361 976 958 371 362 978 960 
8 958 976 977 959 960 978 979 961 
8 959 977 538 529 961 979 539 530 
8 371 362 978 960 372 363 980 962 
8 960 978 979 961 962 980 981 963 
8 961 979 539 530 963 981 540 531 
8 372 363 980 962 373 364 982 964 
8 962 980 981 963 964 982 983 965 
8 963 981 540 531 965 983 541 532 
8 373 364 982 964 374 365 984 966 
8 964 982 983 965 966 984 985 967 
8 965 983 541 532 967 985 542 533 
8 374 365 984 966 6 7 72 71 
8 966 984 985 967 71 72 101 100 
8 967 985 542 533 100 101 54 55 
8 146 147 775 777 357 348 986 968 
8 777 775 774 776 968 986 987 969 
8 776 774 462 463 969 987 543 534 
8 357 348 986 968 358 349 988 970 
8 968 986 987 969 970 988 989 971 
8 969 987 543 534 971 989 544 535 
8 358 349 988 970 359 350 990 972 
8 970 988 989 971 972 990 991 973 
8 971 989 544 535 973 991 545 536 
8 359 350 990 972 360 351 992 974 
8 972 990 991 973 974 992 993 975 
8 973 991 545 536 975 993 546 537 
8 360 351 992 974 361 352 994 976 
8 974 992 993 975 976 994 995 977 
8 975 993 546 537 977 995 547 538 
8 361 352 994 976 362 353 996 978 
8 976 994 995 977 978 996 997 979 
8 977 995 547 538 979 997 548 539 
8 362 353 996 978 363 354 998 980 
8 978 996 997 979 980 998 999 981 
8 979 997 548 539 981 999 549 540 
8 363 354 998 980 364 355 1000 982 
8 980 998 999 981 982 1000 1001 983 
8 981 999 549 540 983 1001 550 541 
8 364 355 1000 982 365 356 1002 984 
8 982 1000 1001 983 984 1002 1003 985 
8 983 1001 550 541 985 1003 551 542 
8 365 356 1002 984 7 8 73 72 
8 984 1002 1003 985 72 73 102 101 
8 985 1003 551 542 101 102 53 54 
8 147 148 773 775 348 339 1004 986 
8 775 773 772 774 986 1004 1005 987 
8 774 772 461 462 987 1005 552 543 
8 348 339 1004 986 349 340 1006 988 
8 986 1004 1005 987 988 1006 1007 989 
8 987 1005 552 543 989 1007 553 544 
8 349 340 1006 988 350 341 1008 990 
8 988 1006 1007 989 990 1008 1009 991 
8 989 1007 553 544 991 1009 554 545 
8 350 341 1008 990 351 342 1010 992 
8 990 1008 1009 991 992 1010 1011 993 
8 991 1009 554 545 993 1011 555 546 
8 351 342 1010 992 352 343 1012 994 
8 992 1010 1011 993 994 1012 1013 995 
8 993 1011 555 546 995 1013 556 547 
8 352 343 1012 994 353 344 1014 996 
8 994 1012 1013 995 996 1014 1015 997 
8 995 1013 556 547 997 1015 557 548 
8 353 344 1014 996 354 345 1016 998 
8 996 1014 1015 997 998 1016 1017 999 
8 997 1015 557 548 999 1017 558 549 
8 354 345 1016 998 355 346 1018 1000 
8 998 1016 1017 999 1000 1018 1019 1001 
8 999 1017 558 549 1001 1019 559 550 
8 355 346 1018 1000 356 347 1020 1002 
8 1000 1018 1019 1001 1002 1020 1021 1003 
8 1001 1019 559 550 1003 1021 560 551 
8 356 347 1020 1002 8 9 74 73 
8 1002 1020 1021 1003 73 74 103 102 
8 1003 1021 560 551 102 103 52 53 
8 148 149 771 773 339 330 1022 1004 
8 773 771 770 772 1004 1022 1023 1005 
8 772 770 460 461 1005 1023 561 552 
8 339 330 1022 1004 340 331 1024 1006 
8 1004 1022 1023 1005 1006 1024 1025 1007 
8 1005 1023 561 552 1007 1025 562 553 
8 340 331 1024 1006 341 332 1026 1008 
8 1006 1024 1025 1007 1008 1026 1027 1009 
8 1007 1025 562 553 1009 1027 563 554 
8 341 332 1026 1008 342 333 1028 1010 
8 1008 1026 1027 1009 1010 1028 1029 1011 
8 1009 1027 563 554 1011 1029 564 555 
8 342 333 1028 1010 343 334 1030 1012 
8 1010 1028 1029 1011 1012 1030 1031 1013 
8 1011 1029 564 555 1013 1031 565 556 
8 343 334 1030 1012 344 335 1032 1014 
8 1012 1030 1031 1013 1014 1032 1033 1015 
8 1013 1031 565 556 1015 1033 566 557 
8 344 335 1032 1014 345 336 1034 1016 
8 1014 1032 1033 1015 1016 1034 1035 1017 
8 1015 1033 566 557 1017 1035 567 558 
8 345 336 1034 1016 346 337 1036 1018 
8 1016 1034 1035 1017 1018 1036 1037 1019 
8 1017 1035 567 558 1019 1037 568 559 
8 346 337 1036 1018 347 338 1038 1020 
8 1018 1036 1037 1019 1020 1038 1039 1021 
8 1019 1037 568 559 1021 1039 569 560 
8 347 338 1038 1020 9 10 75 74 
8 1020 1038 1039 1021 74 75 104 103 
8 1021 1039 569 560 103 104 51 52 
8 149 150 769 771 330 321 1040 1022 
8 771 769 768 770 1022 1040 1041 1023 
8 770 768 459 460 1023 1041 570 561 
8 330 321 1040 1022 331 322 1042 1024 
8 1022 1040 1041 1023 1024 1042 1043 1025 
8 1023 1041 570 561 1025 1043 571 562 
8 331 322 1042 1024 332 323 1044 1026 
8 1024 1042 1043 1025 1026 1044 1045 1027 
8 1025 1043 571 562 1027 1045 572 563 
8 332 323 1044 1026 333 324 1046 1028 
8 1026 1044 1045 1027 1028 1046 1047 1029 
8 1027 1045 572 563 1029 1047 573 564 
8 333 324 1046 1028 334 325 1048 1030 
8 1028 1046 1047 1029 1030 1048 1049 1031 
8 1029 1047 573 564 1031 1049 574 565 
8 334 325 1048 1030 335 326 1050 1032 
8 1030 1048 1049 1031 1032 1050 1051 1033 
8 1031 1049 574 565 1033 1051 575 566 
8 335 326 1050 1032 336 327 1052 1034 
8 1032 1050 1051 1033 1034 1052 1053 1035 
8 1033 1051 575 566 1035 1053 576 567 
8 336 327 1052 1034 337 328 1054 1036 
8 1034 1052 1053 1035 1036 1054 1055 1037 
8 1035 1053 576 567 1037 1055 577 568 
8 337 328 1054 1036 338 329 1056 1038 
8 1036 1054 1055 1037 1038 1056 1057 1039 
8 1037 1055 577 568 1039 1057 578 569 
8 338 329 1056 1038 10 11 76 75 
8 1038 1056 1057 1039 75 76 105 104 
8 1039 1057 578 569 104 105 50 51 
8 150 151 767 769 321 312 1058 1040 
8 769 767 766 768 1040 1058 1059 1041 
8 768 766 458 459 1041 1059 579 570 
8 321 312 1058 1040 322 313 1060 1042 
8 1040 1058 1059 1041 1042 1060 1061 1043 
8 1041 1059 579 570 1043 1061 580 571 
8 322 313 1060 1042 323 314 1062 1044 
8 1042 1060 1061 1043 1044 1062 1063 1045 
8 1043 1061 580 571 1045 1063 581 572 
8 323 314 1062 1044 324 315 1064 1046 
8 1044 1062 1063 1045 1046 1064 1065 1047 
8 1045 1063 581 572 1047 1065 582 573 
8 324 315 1064 1046 325 316 1066 1048 
8 1046 1064 1065 1047 1048 1066 1067 1049 
8 1047 1065 582 573 1049 1067 583 574 
8 325 316 1066 1048 326 317 1068 1050 
8 1048 1066 1067 1049 1050 1068 1069 1051 
8 1049 1067 583 574 1051 1069 584 575 
8 326 317 1068 1050 327 318 1070 1052 
8 1050 1068 1069 1051 1052 1070 1071 1053 
8 1051 1069 584 575 1053 1071 585 576 
8 327 318 1070 1052 328 319 1072 1054 
8 1052 1070 1071 1053 1054 1072 1073 1055 
8 1053 1071 585 576 1055 1073 586 577 
8 328 319 1072 1054 329 320 1074 1056 
8 1054 1072 1073 1055 1056 1074 1075 1057 
8 1055 1073 586 577 1057 1075 587 578 
8 329 320 1074 1056 11 12 77 76 
8 1056 1074 1075 1057 76 77 106 105 
8 1057 1075 587 578 105 106 49 50 
8 151 152 765 767 312 303 1076 1058 
8 767 765 764 766 1058 1076 1077 1059 
8 766 764 457 458 1059 1077 588 579 
8 312 303 1076 1058 313 304 1078 1060 
8 1058 1076 1077 1059 1060 1078 1079 1061 
8 1059 1077 588 579 1061 1079 589 580 
8 313 304 1078 1060 314 305 1080 1062 
8 1060 1078 1079 1061 1062 1080 1081 1063 
8 1061 1079 589 580 1063 1081 590 581 
8 314 305 1080 1062 315 306 1082 1064 
8 1062 1080 1081 1063 1064 1082 1083 1065 
8 1063 1081 590 581 1065 1083 591 582 
8 315 306 1082 1064 316 307 1084 1066 
8 1064 1082 1083 1065 1066 1084 1085 1067 
8 1065 1083 591 582 1067 1085 592 583 
8 316 307 1084 1066 317 308 1086 1068 
8 1066 1084 1085 1067 1068 1086 1087 1069 
8 1067 1085 592 583 1069 1087 593 584 
8 317 308 1086 1068 318 309 1088 1070 
8 1068 1086 1087 1069 1070 1088 1089 1071 
8 1069 1087 593 584 1071 1089 594 585 
8 318 309 1088 1070 319 310 1090 1072 
8 1070 1088 1089 1071 1072 1090 1091 1073 
8 1071 1089 594 585 1073 1091 595 586 
8 319 310 1090 1072 320 311 1092 1074 
8 1072 1090 1091 1073 1074 1092 1093 1075 
8 1073 1091 595 586 1075 1093 596 587 
8 320 311 1092 1074 12 13 78 77 
8 1074 1092 1093 1075 77 78 107 106 
8 1075 1093 596 587 106 107 48 49 
8 152 153 763 765 303 294 1094 1076 
8 765 763 762 764 1076 1094 1095 1077 
8 764 762 456 457 1077 1095 597 588 
8 303 294 1094 1076 304 295 1096 1078 
8 1076 1094 1095 1077 1078 1096 1097 1079 
8 1077 1095 597 588 1079 1097 598 589 
8 304 295 1096 1078 305 296 1098 1080 
8 1078 1096 1097 1079 1080 1098 1099 1081 
8 1079 1097 598 589 1081 1099 599 590 
8 305 296 1098 1080 306 297 1100 1082 
8 1080 1098 1099 1081 1082 1100 1101 1083 
8 1081 1099 599 590 1083 1101 600 591 
8 306 297 1100 1082 307 298 1102 1084 
8 1082 1100 1101 1083 1084 1102 1103 1085 
8 1083 1101 600 591 1085 1103 601 592 
8 307 298 1102 1084 308 299 1104 1086 
8 1084 1102 1103 1085 1086 1104 1105 1087 
8 1085 1103 601 592 1087 1105 602 593 
8 308 299 1104 1086 309 300 1106 1088 
8 1086 1104 1105 1087 1088 1106 1107 1089 
8 1087 1105 602 593 1089 1107 603 594 
8 309 300 1106 1088 310 301 1108 1090 
8 1088 1106 1107 1089 1090 1108 1109 1091 
8 1089 1107 603 594 1091 1109 604 595 
8 310 301 1108 1090 311 302 1110 1092 
8 1090 1108 1109 1091 1092 1110 1111 1093 
8 1091 1109 604 595 1093 1111 605 596 
8 311 302 1110 1092 13 14 79 78 
8 1092 1110 1111 1093 78 79 108 107 
8 1093 1111 605 596 107 108 47 48 
8 153 154 761 763 294 285 1112 1094 
8 763 761 760 762 1094 1112 1113 1095 
8 762 760 455 456 1095 1113 606 597 
8 294 285 1112 1094 295 286 1114 1096 
8 1094 1112 1113 1095 1096 1114 1115 1097 
8 1095 1113 606 597 1097 1115 607 598 
8 295 286 1114 1096 296 287 1116 1098 
8 1096 1114 1115 1097 1098 1116 1117 1099 
8 1097 1115 607 598 1099 1117 608 599 
8 296 287 1116 1098 297 288 1118 1100 
8 1098 1116 1117 1099 1100 1118 1119 1101 
8 1099 1117 608 599 1101 1119 609 600 
8 297 288 1118 1100 298 289 1120 1102 
8 1100 1118 1119 1101 1102 1120 1121 1103 
8 1101 1119 609 600 1103 1121 610 601 
8 298 289 1120 1102 299 290 1122 1104 
8 1102 1120 1121 1103 1104 1122 1123 1105 
8 1103 1121 610 601 1105 1123 611 602 
8 299 290 1122 1104 300 291 1124 1106 
8 1104 1122 1123 1105 1106 1124 1125 1107 
8 1105 1123 611 602 1107 1125 612 603 
8 300 291 1124 1106 301 292 1126 1108 
8 1106 1124 1125 1107 1108 1126 1127 1109 
8 1107 1125 612 603 1109 1127 613 604 
8 301 292 1126 1108 302 293 1128 1110 
8 1108 1126 1127 1109 1110 1128 1129 1111 
8 1109 1127 613 604 1111 1129 614 605 
8 302 293 1128 1110 14 15 80 79 
8 1110 1128 1129 1111 79 80 109 108 
8 1111 1129 614 605 108 109 46 47 
8 154 155 759 761 285 276 1130 1112 
8 761 759 758 760 1112 1130 1131 1113 
8 760 758 454 455 1113 1131 615 606 
8 285 276 1130 1112 286 277 1132 1114 
8 1112 1130 1131 1113 1114 1132 1133 1115 
8 1113 1131 615 606 1115 1133 616 607 
8 286 277 1132 1114 287 278 1134 1116 
8 1114 1132 1133 1115 1116 1134 1135 1117 
8 1115 1133 616 607 1117 1135 617 608 
8 287 278 1134 1116 288 279 1136 1118 
8 1116 1134 1135 1117 1118 1136 1137 1119 
8 1117 1135 617 608 1119 1137 618 609 
8 288 279 1136 1118 289 280 1138 1120 
8 1118 1136 1137 1119 1120 1138 1139 1121 
8 1119 1137 618 609 1121 1139 619 610 
8 289 280 1138 1120 290 281 1140 1122 
8 1120 1138 1139 1121 1122 1140 1141 1123 
8 1121 1139 619 610 1123 1141 620 611 
8 290 281 1140 1122 291 282 1142 1124 
8 1122 1140 1141 1123 1124 1142 1143 1125 
8 1123 1141 620 611 1125 1143 621 612 
8 291 282 1142 1124 292 283 1144 1126 
8 1124 1142 1143 1125 1126 1144 1145 1127 
8 1125 1143 621 612 1127 1145 622 613 
8 292 283 1144 1126 293 284 1146 1128 
8 1126 1144 1145 1127 1128 1146 1147 1129 
8 1127 1145 622 613 1129 1147 623 614 
8 293 284 1146 1128 15 16 81 80 
8 1128 1146 1147 1129 80 81 110 109 
8 1129 1147 623 614 109 110 45 46 
8 155 156 757 759 276 267 1148 1130 
8 759 757 756 758 1130 1148 1149 1131 
8 758 756 453 454 1131 1149 624 615 
8 276 267 1148 1130 277 268 1150 1132 
8 1130 1148 1149 1131 1132 1150 1151 1133 
8 1131 1149 624 615 1133 1151 625 616 
8 277 268 1150 1132 278 269 1152 1134 
8 1132 1150 1151 1133 1134 1152 1153 1135 
8 1133 1151 625 616 1135 1153 626 617 
8 278 269 1152 1134 279 270 1154 1136 
8 1134 1152 1153 1135 1136 1154 1155 1137 
8 1135 1153 626 617 1137 1155 627 618 
8 279 270 1154 1136 280 271 1156 1138 
8 1136 1154 1155 1137 1138 1156 1157 1139 
8 1137 1155 627 618 1139 1157 628 619 
8 280 271 1156 1138 281 272 1158 1140 
8 1138 1156 1157 1139 1140 1158 1159 1141 
8 1139 1157 628 619 1141 1159 629 620 
8 281 272 1158 1140 282 273 1160 1142 
8 1140 1158 1159 1141 1142 1160 1161 1143 
8 1141 1159 629 620 1143 1161 630 621 
8 282 273 1160 1142 283 274 1162 1144 
8 1142 1160 1161 1143 1144 1162 1163 1145 
8 1143 1161 630 621 1145 1163 631 622 
8 283 274 1162 1144 284 275 1164 1146 
8 1144 1162 1163 1145 1146 1164 1165 1147 
8 1145 1163 631 622 1147 1165 632 623 
8 284 275 1164 1146 16 17 82 81 
8 1146 1164 1165 1147 81 82 111 110 
8 1147 1165 632 623 110 111 44 45 
8 156 157 755 757 267 258 1166 1148 
8 757 755 754 756 1148 1166 1167 1149 
8 756 754 452 453 1149 1167 633 624 
8 267 258 1166 1148 268 259 1168 1150 
8 1148 1166 1167 1149 1150 1168 1169 1151 
8 1149 1167 633 624 1151 1169 634 625 
8 268 259 1168 1150 269 260 1170 1152 
8 1150 1168 1169 1151 1152 1170 1171 1153 
8 1151 1169 634 625 1153 1171 635 626 
8 269 260 1170 1152 270 261 1172 1154 
8 1152 1170 1171 1153 1154 1172 1173 1155 
8 1153 1171 635 626 1155 1173 636 627 
8 270 261 1172 1154 271 262 1174 1156 
8 1154 1172 1173 1155 1156 1174 1175 1157 
8 1155 1173 636 627 1157 1175 637 628 
8 271 262 1174 1156 272 263 1176 1158 
8 1156 1174 1175 1157 1158 1176 1177 1159 
8 1157 1175 637 628 1159 1177 638 629 
8 272 263 1176 1158 273 264 1178 1160 
8 1158 1176 1177 1159 1160 1178 1179 1161 
8 1159 1177 638 629 1161 1179 639 630 
8 273 264 1178 1160 274 265 1180 1162 
8 1160 1178 1179 1161 1162 1180 1181 1163 
8 1161 1179 639 630 1163 1181 640 631 
8 274 265 1180 1162 275 266 1182 1164 
8 1162 1180 1181 1163 1164 1182 1183 1165 
8 1163 1181 640 631 1165 1183 641 632 
8 275 266 1182 1164 17 18 83 82 
8 1164 1182 1183 1165 82 83 112 111 
8 1165 1183 641 632 111 112 43 44 
8 157 158 753 755 258 249 1184 1166 
8 755 753 752 754 1166 1184 1185 1167 
8 754 752 451 452 1167 1185 642 633 
8 258 249 1184 1166 259 250 1186 1168 
8 1166 1184 1185 1167 1168 1186 1187 1169 
8 1167 1185 642 633 1169 1187 643 634 
8 259 250 1186 1168 260 251 1188 1170 
8 1168 1186 1187 1169 1170 1188 1189 1171 
8 1169 1187 643 634 1171 1189 644 635 
8 260 251 1188 1170 261 252 1190 1172 
8 1170 1188 1189 1171 1172 1190 1191 1173 
8 1171 1189 644 635 1173 1191 645 636 
8 261 252 1190 1172 262 253 1192 1174 
8 1172 1190 1191 1173 1174 1192 1193 1175 
8 1173 1191 645 636 1175 1193 646 637 
8 262 253 1192 1174 263 254 1194 1176 
8 1174 1192 1193 1175 1176 1194 1195 1177 
8 1175 1193 646 637 1177 1195 647 638 
8 263 254 1194 1176 264 255 1196 1178 
8 1176 1194 1195 1177 1178 1196 1197 1179 
8 1177 1195 647 638 1179 1197 648 639 
8 264 255 1196 1178 265 256 1198 1180 
8 1178 1196 1197 1179 1180 1198 1199 1181 
8 1179 1197 648 639 1181 1199 649 640 
8 265 256 1198 1180 266 257 1200 1182 
8 1180 1198 1199 1181 1182 1200 1201 1183 
8 1181 1199 649 640 1183 1201 650 641 
8 266 257 1200 1182 18 19 84 83 
8 1182 1200 1201 1183 83 84 113 112 
8 1183 1201 650 641 112 113 42 43 
8 158 159 751 753 249 240 1202 1184 
8 753 751 750 752 1184 1202 1203 1185 
8 752 750 450 451 1185 1203 651 642 
8 249 240 1202 1184 250 241 1204 1186 
8 1184 1202 1203 1185 1186 1204 1205 1187 
8 1185 1203 651 642 1187 1205 652 643 
8 250 241 1204 1186 251 242 1206 1188 
8 1186 1204 1205 1187 1188 1206 1207 1189 
8 1187 1205 652 643 1189 1207 653 644 
8 251 242 1206 1188 252 243 1208 1190 
8 1188 1206 1207 1189 1190 1208 1209 1191 
8 1189 1207 653 644 1191 1209 654 645 
8 252 243 1208 1190 253 244 1210 1192 
8 1190 1208 1209 1191 1192 1210 1211 1193 
8 1191 1209 654 645 1193 1211 655 646 
8 253 244 1210 1192 254 245 1212 1194 
8 1192 1210 1211 1193 1194 1212 1213 1195 
8 1193 1211 655 646 1195 1213 656 647 
8 254 245 1212 1194 255 246 1214 1196 
8 1194 1212 1213 1195 1196 1214 1215 1197 
8 1195 1213 656 647 1197 1215 657 648 
8 255 246 1214 1196 256 247 1216 1198 
8 1196 1214 1215 1197 1198 1216 1217 1199 
8 1197 1215 657 648 1199 1217 658 649 
8 256 247 1216 1198 257 248 1218 1200 
8 1198 1216 1217 1199 1200 1218 1219 1201 
8 1199 1217 658 649 1201 1219 659 650 
8 257 248 1218 1200 19 20 85 84 
8 1200 1218 1219 1201 84 85 114 113 
8 1201 1219 659 650 113 114 41 42 
8 159 160 749 751 240 231 1220 1202 
8 751 749 748 750 1202 1220 1221 1203 
8 750 748 449 450 1203 1221 660 651 
8 240 231 1220 1202 241 232 1222 1204 
8 1202 1220 1221 1203 1204 1222 1223 1205 
8 1203 1221 660 651 1205 1223 661 652 
8 241 232 1222 1204 242 233 1224 1206 
8 1204 1222 1223 1205 1206 1224 1225 1207 
8 1205 1223 661 652 1207 1225 662 653 
8 242 233 1224 1206 243 234 1226 1208 
8 1206 1224 1225 1207 1208 1226 1227 1209 
8 1207 1225 662 653 1209 1227 663 654 
8 243 234 1226 1208 244 235 1228 1210 
8 1208 1226 1227 1209 1210 1228 1229 1211 
8 1209 1227 663 654 1211 1229 664 655 
8 244 235 1228 1210 245 236 1230 1212 
8 1210 1228 1229 1211 1212 1230 1231 1213 
8 1211 1229 664 655 1213 1231 665 656 
8 245 236 1230 1212 246 237 1232 1214 
8 1212 1230 1231 1213 1214 1232 1233 1215 
8 1213 1231 665 656 1215 1233 666 657 
8 246 237 1232 1214 247 238 1234 1216 
8 1214 1232 1233 1215 1216 1234 1235 1217 
8 1215 1233 666 657 1217 1235 667 658 
8 247 238 1234 1216 248 239 1236 1218 
8 1216 1234 1235 1217 1218 1236 1237 1219 
8 1217 1235 667 658 1219 1237 668 659 
8 248 239 1236 1218 20 21 86 85 
8 1218 1236 1237 1219 85 86 115 114 
8 1219 1237 668 659 114 115 40 41 
8 160 161 747 749 231 222 1238 1220 
8 749 747 746 748 1220 1238 1239 1221 
8 748 746 448 449 1221 1239 669 660 
8 231 222 1238 1220 232 223 1240 1222 
8 1220 1238 1239 1221 1222 1240 1241 1223 
8 1221 1239 669 660 1223 1241 670 661 
8 232 223 1240 1222 233 224 1242 1224 
8 1222 1240 1241 1223 1224 1242 1243 1225 
8 1223 1241 670 661 1225 1243 671 662 
8 233 224 1242 1224 234 225 1244 1226 
8 1224 1242 1243 1225 1226 1244 1245 1227 
8 1225 1243 671 662 1227 1245 672 663 
8 234 225 1244 1226 235 226 1246 1228 
8 1226 1244 1245 1227 1228 1246 1247 1229 
8 1227 1245 672 663 1229 1247 673 664 
8 235 226 1246 1228 236 227 1248 1230 
8 1228 1246 1247 1229 1230 1248 1249 1231 
8 1229 1247 673 664 1231 1249 674 665 
8 236 227 1248 1230 237 228 1250 1232 
8 1230 1248 1249 1231 1232 1250 1251 1233 
8 1231 1249 674 665 1233 1251 675 666 
8 237 228 1250 1232 238 229 1252 1234 
8 1232 1250 1251 1233 1234 1252 1253 1235 
8 1233 1251 675 666 1235 1253 676 667 
8 238 229 1252 1234 239 230 1254 1236 
8 1234 1252 1253 1235 1236 1254 1255 1237 
8 1235 1253 676 667 1237 1255 677 668 
8 239 230 1254 1236 21 22 87 86 
8 1236 1254 1255 1237 86 87 116 115 
8 1237 1255 677 668 115 116 39 40 
8 161 162 745 747 222 213 1256 1238 
8 747 745 744 746 1238 1256 1257 1239 
8 746 744 447 448 1239 1257 678 669 
8 222 213 1256 1238 223 214 1258 1240 
8 1238 1256 1257 1239 1240 1258 1259 1241 
8 1239 1257 678 669 1241 1259 679 670 
8 223 214 1258 1240 224 215 1260 1242 
8 1240 1258 1259 1241 1242 1260 1261 1243 
8 1241 1259 679 670 1243 1261 680 671 
8 224 215 1260 1242 225 216 1262 1244 
8 1242 1260 1261 1243 1244 1262 1263 1245 
8 1243 1261 680 671 1245 1263 681 672 
8 225 216 1262 1244 226 217 1264 1246 
8 1244 1262 1263 1245 1246 1264 1265 1247 
8 1245 1263 681 672 1247 1265 682 673 
8 226 217 1264 1246 227 218 1266 1248 
8 1246 1264 1265 1247 1248 1266 1267 1249 
8 1247 1265 682 673 1249 1267 683 674 
8 227 218 1266 1248 228 219 1268 1250 
8 1248 1266 1267 1249 1250 1268 1269 1251 
8 1249 1267 683 674 1251 1269 684 675 
8 228 219 1268 1250 229 220 1270 1252 
8 1250 1268 1269 1251 1252 1270 1271 1253 
8 1251 1269 684 675 1253 1271 685 676 
8 229 220 1270 1252 230 221 1272 1254 
8 1252 1270 1271 1253 1254 1272 1273 1255 
8 1253 1271 685 676 1255 1273 686 677 
8 230 221 1272 1254 22 23 88 87 
8 1254 1272 1273 1255 87 88 117 116 
8 1255 1273 686 677 116 117 38 39 
8 162 163 743 745 213 204 1274 1256 
8 745 743 742 744 1256 1274 1275 1257 
8 744 742 446 447 1257 1275 687 678 
8 213 204 1274 1256 214 205 1276 1258 
8 1256 1274 1275 1257 1258 1276 1277 1259 
8 1257 1275 687 678 1259 1277 688 679 
8 214 205 1276 1258 215 206 1278 1260 
8 1258 1276 1277 1259 1260 1278 1279 1261 
8 1259 1277 688 679 1261 1279 689 680 
8 215 206 1278 1260 216 207 1280 1262 
8 1260 1278 1279 1261 1262 1280 1281 1263 
8 1261 1279 689 680 1263 1281 690 681 
8 216 207 1280 1262 217 208 1282 1264 
8 1262 1280 1281 1263 1264 1282 1283 1265 
8 1263 1281 690 681 1265 1283 691 682 
8 217 208 1282 1264 218 209 1284 1266 
8 1264 1282 1283 1265 1266 1284 1285 1267 
8 1265 1283 691 682 1267 1285 692 683 
8 218 209 1284 1266 219 210 1286 1268 
8 1266 1284 1285 1267 1268 1286 1287 1269 
8 1267 1285 692 683 1269 1287 693 684 
8 219 210 1286 1268 220 211 1288 1270 
8 1268 1286 1287 1269 1270 1288 1289 1271 
8 1269 1287 693 684 1271 1289 694 685 
8 220 211 1288 1270 221 212 1290 1272 
8 1270 1288 1289 1271 1272 1290 1291 1273 
8 1271 1289 694 685 1273 1291 695 686 
8 221 212 1290 1272 23 24 89 88 
8 1272 1290 1291 1273 88 89 118 117 
8 1273 1291 695 686 117 118 37 38 
8 163 164 741 743 204 195 1292 1274 
8 743 741 740 742 1274 1292 1293 1275 
8 742 740 445 446 1275 1293 696 687 
8 204 195 1292 1274 205 196 1294 1276 
8 1274 1292 1293 1275 1276 1294 1295 1277 
8 1275 1293 696 687 1277 1295 697 688 
8 205 196 1294 1276 206 197 1296 1278 
8 1276 1294 1295 1277 1278 1296 1297 1279 
8 1277 1295 697 688 1279 1297 698 689 
8 206 197 1296 1278 207 198 1298 1280 
8 1278 1296 1297 1279 1280 1298 1299 1281 
8 1279 1297 698 689 1281 1299 699 690 
8 207 198 1298 1280 208 199 1300 1282 
8 1280 1298 1299 1281 1282 1300 1301 1283 
8 1281 1299 699 690 1283 1301 700 691 
8 208 199 1300 1282 209 200 1302 1284 
8 1282 1300 1301 1283 1284 1302 1303 1285 
8 1283 1301 700 691 1285 1303 701 692 
8 209 200 1302 1284 210 201 1304 1286 
8 1284 1302 1303 1285 1286 1304 1305 1287 
8 1285 1303 701 692 1287 1305 702 693 
8 210 201 1304 1286 211 202 1306 1288 
8 1286 1304 1305 1287 1288 1306 1307 1289 
8 1287 1305 702 693 1289 1307 703 694 
8 211 202 1306 1288 212 203 1308 1290 
8 1288 1306 1307 1289 1290 1308 1309 1291 
8 1289 1307 703 694 1291 1309 704 695 
8 212 203 1308 1290 24 25 90 89 
8 1290 1308 1309 1291 89 90 119 118 
8 1291 1309 704 695 118 119 36 37 
8 164 165 739 741 195 186 1310 1292 
8 741 739 738 740 1292 1310 1311 1293 
8 740 738 444 445 1293 1311 705 696 
8 195 186 1310 1292 196 187 1312 1294 
8 1292 1310 1311 1293 1294 1312 1313 1295 
8 1293 1311 705 696 1295 1313 706 697 
8 196 187 1312 1294 197 188 1314 1296 
8 1294 1312 1313 1295 1296 1314 1315 1297 
8 1295 1313 706 697 1297 1315 707 698 
8 197 188 1314 1296 198 189 1316 1298 
8 1296 1314 1315 1297 1298 1316 1317 1299 
8 1297 1315 707 698 1299 1317 708 699 
8 198 189 1316 1298 199 190 1318 1300 
8 1298 1316 1317 1299 1300 1318 1319 1301 
8 1299 1317 708 699 1301 1319 709 700 
8 199 190 1318 1300 200 191 1320 1302 
8 1300 1318 1319 1301 1302 1320 1321 1303 
8 1301 1319 709 700 1303 1321 710 701 
8 200 191 1320 1302 201 192 1322 1304 
8 1302 1320 1321 1303 1304 1322 1323 1305 
8 1303 1321 710 701 1305 1323 711 702 
8 201 192 1322 1304 202 193 1324 1306 
8 1304 1322 1323 1305 1306 1324 1325 1307 
8 1305 1323 711 702 1307 1325 712 703 
8 202 193 1324 1306 203 194 1326 1308 
8 1306 1324 1325 1307 1308 1326 1327 1309 
8 1307 1325 712 703 1309 1327 713 704 
8 203 194 1326 1308 25 26 91 90 
8 1308 1326 1327 1309 90 91 120 119 
8 1309 1327 713 704 119 120 35 36 
8 165 166 737 739 186 177 1328 1310 
8 739 737 736 738 1310 1328 1329 1311 
8 738 736 443 444 1311 1329 714 705 
8 186 177 1328 1310 187 178 1330 1312 
8 1310 1328 1329 1311 1312 1330 1331 1313 
8 1311 1329 714 705 1313 1331 715 706 
8 187 178 1330 1312 188 179 1332 1314 
8 1312 1330 1331 1313 1314 1332 1333 1315 
8 1313 1331 715 706 1315 1333 716 707 
8 188 179 1332 1314 189 180 1334 1316 
8 1314 1332 1333 1315 1316 1334 1335 1317 
8 1315 1333 716 707 1317 1335 717 708 
8 189 180 1334 1316 190 181 1336 1318 
8 1316 1334 1335 1317 1318 1336 1337 1319 
8 1317 1335 717 708 1319 1337 718 709 
8 190 181 1336 1318 191 182 1338 1320 
8 1318 1336 1337 1319 1320 1338 1339 1321 
8 1319 1337 718 709 1321 1339 719 710 
8 191 182 1338 1320 192 183 1340 1322 
8 1320 1338 1339 1321 1322 1340 1341 1323 
8 1321 1339 719 710 1323 1341 720 711 
8 192 183 1340 1322 193 184 1342 1324 
8 1322 1340 1341 1323 1324 1342 1343 1325 
8 1323 1341 720 711 1325 1343 721 712 
8 193 184 1342 1324 194 185 1344 1326 
8 1324 1342 1343 1325 1326 1344 1345 1327 
8 1325 1343 721 712 1327 1345 722 713 
8 194 185 1344 1326 26 27 92 91 
8 1326 1344 1345 1327 91 92 121 120 
8 1327 1345 722 713 120 121 34 35 
8 166 167 735 737 177 168 1346 1328 
8 737 735 734 736 1328 1346 1347 1329 
8 736 734 442 443 1329 1347 723 714 
8 177 168 1346 1328 178 169 1348 1330 
8 1328 1346 1347 1329 1330 1348 1349 1331 
8 1329 1347 723 714 1331 1349 724 715 
8 178 169 1348 1330 179 170 1350 1332 
8 1330 1348 1349 1331 1332 1350 1351 1333 
8 1331 1349 724 715 1333 1351 725 716 
8 179 170 1350 1332 180 171 1352 1334 
8 1332 1350 1351 1333 1334 1352 1353 1335 
8 1333 1351 725 716 1335 1353 726 717 
8 180 171 1352 1334 181 172 1354 1336 
8 1334 1352 1353 1335 1336 1354 1355 1337 
8 1335 1353 726 717 1337 1355 727 718 
8 181 172 1354 1336 182 173 1356 1338 
8 1336 1354 1355 1337 1338 1356 1357 1339 
8 1337 1355 727 718 1339 1357 728 719 
8 182 173 1356 1338 183 174 1358 1340 
8 1338 1356 1357 1339 1340 1358 1359 1341 
8 1339 1357 728 719 1341 1359 729 720 
8 183 174 1358 1340 184 175 1360 1342 
8 1340 1358 1359 1341 1342 1360 1361 1343 
8 1341 1359 729 720 1343 1361 730 721 
8 184 175 1360 1342 185 176 1362 1344 
8 1342 1360 1361 1343 1344 1362 1363 1345 
8 1343 1361 730 721 1345 1363 731 722 
8 185 176 1362 1344 27 28 93 92 
8 1344 1362 1363 1345 92 93 122 121 
8 1345 1363 731 722 121 122 33 34 
8 167 123 733 735 168 124 792 1346 
8 735 733 732 734 1346 792 793 1347 
8 734 732 441 442 1347 793 440 723 
8 168 124 792 1346 169 125 794 1348 
8 1346 792 793 1347 1348 794 795 1349 
8 1347 793 440 723 1349 795 439 724 
8 169 125 794 1348 170 126 796 1350 
8 1348 794 795 1349 1350 796 797 1351 
8 1349 795 439 724 1351 797 438 725 
8 170 126 796 1350 171 127 798 1352 
8 1350 796 797 1351 1352 798 799 1353 
8 1351 797 438 725 1353 799 437 726 
8 171 127 798 1352 172 128 800 1354 
8 1352 798 799 1353 1354 800 801 1355 
8 1353 799 437 726 1355 801 436 727 
8 172 128 800 1354 173 129 802 1356 
8 1354 800 801 1355 1356 802 803 1357 
8 1355 801 436 727 1357 803 435 728 
8 173 129 802 1356 174 130 804 1358 
8 1356 802 803 1357 1358 804 805 1359 
8 1357 803 435 728 1359 805 434 729 
8 174 130 804 1358 175 131 806 1360 
8 1358 804 805 1359 1360 806 807 1361 
8 1359 805 434 729 1361 807 433 730 
8 175 131 806 1360 176 132 808 1362 
8 1360 806 807 1361 1362 808 809 1363 
8 1361 807 433 730 1363 809 432 731 
8 176 132 808 1362 28 29 30 93 
8 1362 808 809 1363 93 30 31 122 
8 1363 809 432 731 122 31 32 33 


CELL_TYPES 900
12
12
12
12
12
12
12
12
12
12
12
12
12
12
12
12
12
12
12
12
12
12
12
12
12
12
12
12
12
12
12
12
12
12
12
12
12
12
12
12
12
12
12
12
12
12
12
12
12
12
12
12
12
12
12
12
12
12
12
12
12
12
12
12
12
12
12
12
12
12
12
12
12
12
12
12
12
12
12
12
12
12
12
12
12
12
12
12
12
12
12
12
12
12
12
12
12
12
12
12
12
12
12
12
12
12
12
12
12
12
12
12
12
12
12
12
12
12
12
12
12
12
12
12
12
12
12
12
12
12
12
12
12
12
12
12
12
12
12
12
12
12
12
12
12
12
12
12
12
12
12
12
12
12
12
12
12
12
12
12
12
12
12
12
12
12
12
12
12
12
12
12
12
12
12
12
12
12
12
12
12
12
12
12
12
12
12
12
12
12
12
12
12
12
12
12
12
12
12
12
12
12
12
12
12
12
12
12
12
12
12
12
12
12
12
12
12
12
12
12
12
12
12
12
12
12
12
12
12
12
12
12
12
12
12
12
12
12
12
12
12
12
12
12
12
12
12
12
12
12
12
12
12
12
12
12
12
12
12
12
12
12
12
12
12
12
12
12
12
12
12
12
12
12
12
12
12
12
12
12
12
12
12
12
12
12
12
12
12
12
12
12
12
12
12
12
12
12
12
12
12
12
12
12
12
12
12
12
12
12
12
12
12
12
12
12
12
12
12
12
12
12
12
12
12
12
12
12
12
12
12
12
12
12
12
12
12
12
12
12
12
12
12
12
12
12
12
12
12
12
12
12
12
12
12
12
12
12
12
12
12
12
12
12
12
12
12
12
12
12
12
12
12
12
12
12
12
12
12
12
12
12
12
12
12
12
12
12
12
12
12
12
12
12
12
12
12
12
12
12
12
12
12
12
12
12
12
12
12
12
12
12
12
12
12
12
12
12
12
12
12
12
12
12
12
12
12
12
12
12
12
12
12
12
12
12
12
12
12
12
12
12
12
12
12
12
12
12
12
12
12
12
12
12
12
12
12
12
12
12
12
12
12
12
12
12
12
12
12
12
12
12
12
12
12
12
12
12
12
12
12
12
12
12
12
12
12
12
12
12
12
12
12
12
12
12
12
12
12
12
12
12
12
12
12
12
12
12
12
12
12
12
12
12
12
12
12
12
12
12
12
12
12
12
12
12
12
12
12
12
12
12
12
12
12
12
12
12
12
12
12
12
12
12
12
12
12
12
12
12
12
12
12
12
12
12
12
12
12
12
12
12
12
12
12
12
12
12
12
12
12
12
12
12
12
12
12
12
12
12
12
12
12
12
12
12
12
12
12
12
12
12
12
12
12
12
12
12
12
12
12
12
12
12
12
12
12
12
12
12
12
12
12
12
12
12
12
12
12
12
12
12
12
12
12
12
12
12
12
12
12
12
12
12
12
12
12
12
12
12
12
12
12
12
12
12
12
12
12
12
12
12
12
12
12
12
12
12
12
12
12
12
12
12
12
12
12
12
12
12
12
12
12
12
12
12
12
12
12
12
12
12
12
12
12
12
12
12
12
12
12
12
12
12
12
12
12
12
12
12
12
12
12
12
12
12
12
12
12
12
12
12
12
12
12
12
12
12
12
12
12
12
12
12
12
12
12
12
12
12
12
12
12
12
12
12
12
12
12
12
12
12
12
12
12
12
12
12
12
12
12
12
12
12
12
12
12
12
12
12
12
12
12
12
12
12
12
12
12
12
12
12
12
12
12
12
12
12
12
12
12
12
12
12
12
12
12
12
12
12
12
12
12
12
12
12
12
12
12
12
12
12
12
12
12
12
12
12
12
12
12
12
12
12
12
12
12
12
12
12
12
12
12
12
12
12
12
12
12
12
12
12
12
12
12
12
12
12
12
12
12
12
12
12
12
12
12
12
12
12
12
12
12
12
12
12
12
12
12
12
12
12
12
12
12
12
12
12
12
12
12
12
12
12
12
12
12
12
12
12
12
12
12
12
12
12
12
12
12
12
12
12
12
12
12
12
12
12
12
12


POINT_DATA 1364
VECTORS displacement double
  -0.0000000762   -0.0000000107    0.0000000526
  -0.0000001542   -0.0000000657    0.0000000726
  -0.0000002328   -0.0000001847    0.0000000842
  -0.0000003109   -0.0000003614    0.0000000904
  -0.0000003869   -0.0000005931    0.0000000936
  -0.0000004603   -0.0000008771    0.0000000948
  -0.0000005309   -0.0000012107    0.0000000944
  -0.0000005984   -0.0000015915    0.0000000929
  -0.0000006630   -0.0000020173    0.0000000906
  -0.0000007245   -0.0000024856    0.0000000877
  -0.0000007830   -0.0000029945    0.0000000843
  -0.0000008385   -0.0000035416    0.0000000807
  -0.0000008910   -0.0000041249    0.0000000768
  -0.0000009404   -0.0000047424    0.0000000727
  -0.0000009869   -0.0000053919    0.0000000686
  -0.0000010303   -0.0000060715    0.0000000643
  -0.0000010708   -0.0000067791    0.0000000600
  -0.0000011082   -0.0000075127    0.0000000557
  -0.0000011427   -0.0000082703    0.0000000513
  -0.0000011741   -0.0000090498    0.0000000470
  -0.0000012026   -0.0000098492    0.0000000427
  -0.0000012281   -0.0000106666    0.0000000384
  -0.0000012506   -0.0000114999    0.0000000342
  -0.0000012701   -0.0000123471    0.0000000301
  -0.0000012867   -0.0000132061    0.0000000261
  -0.0000013003   -0.0000140749    0.0000000224
  -0.0000013110   -0.0000149515    0.0000000190
  -0.0000013184   -0.0000158337    0.0000000161
  -0.0000013222   -0.0000167183    0.0000000144
  -0.0000013232   -0.0000176012    0.0000000140
  -0.0000004425   -0.0000176020    0.0000000083
   0.0000004369   -0.0000176061    0.0000000035
   0.0000013252   -0.0000176160   -0.0000000029
   0.0000013213   -0.0000167180   -0.0000000086
   0.0000013162   -0.0000158326   -0.0000000121
   0.0000013087   -0.0000149508   -0.0000000156
   0.0000012985   -0.0000140746   -0.0000000193
   0.0000012853   -0.0000132059   -0.0000000233
   0.0000012689   -0.0000123470   -0.0000000275
   0.0000012496   -0.0000114999   -0.0000000317
   0.0000012272   -0.0000106666   -0.0000000361
   0.0000012018   -0.0000098492   -0.0000000405
   0.0000011733   -0.0000090498   -0.0000000450
   0.0000011419   -0.0000082702   -0.0000000495
   0.0000011075   -0.0000075127   -0.0000000539
   0.0000010700   -0.0000067791   -0.0000000584
   0.0000010296   -0.0000060715   -0.0000000629
   0.0000009862   -0.0000053919   -0.0000000673
   0.0000009398   -0.0000047424   -0.0000000716
   0.0000008903   -0.0000041249   -0.0000000758
   0.0000008379   -0.0000035416   -0.0000000798
   0.0000007825   -0.0000029944   -0.0000000836
   0.0000007240   -0.0000024856   -0.0000000870
   0.0000006625   -0.0000020172   -0.0000000900
   0.0000005980   -0.0000015915   -0.0000000925
   0.0000005305   -0.0000012107   -0.0000000940
   0.0000004600   -0.0000008770   -0.0000000945
   0.0000003866   -0.0000005931   -0.0000000934
   0.0000003106   -0.0000003614   -0.0000000902
   0.0000002327   -0.0000001847   -0.0000000841
   0.0000001541   -0.0000000657   -0.0000000726
   0.0000000761   -0.0000000107   -0.0000000526
   0.0000000000    0.0000000000    0.0000000000
   0.0000000000    0.0000000000    0.0000000000
   0.0000000000    0.0000000000    0.0000000000
  -0.0000000279    0.0000000092    0.0000000179
  -0.0000000541   -0.0000000502    0.0000000245
  -0.0000000789   -0.0000001690    0.0000000281
  -0.0000001041   -0.0000003461    0.0000000301
  -0.0000001289   -0.0000005783    0.0000000312
  -0.0000001530   -0.0000008628    0.0000000316
  -0.0000001763   -0.0000011970    0.0000000314
  -0.0000001986   -0.0000015784    0.0000000310
  -0.0000002200   -0.0000020048    0.0000000302
  -0.0000002405   -0.0000024738    0.0000000293
  -0.0000002599   -0.0000029832    0.0000000282
  -0.0000002784   -0.0000035309    0.0000000270
  -0.0000002958   -0.0000041148    0.0000000258
  -0.0000003123   -0.0000047329    0.0000000245
  -0.0000003278   -0.0000053830    0.0000000232
  -0.0000003423   -0.0000060632    0.0000000218
  -0.0000003557   -0.0000067714    0.0000000204
  -0.0000003682   -0.0000075056    0.0000000190
  -0.0000003797   -0.0000082637    0.0000000176
  -0.0000003902   -0.0000090438    0.0000000163
  -0.0000003997   -0.0000098439    0.0000000149
  -0.0000004083   -0.0000106619    0.0000000135
  -0.0000004158   -0.0000114958    0.0000000122
  -0.0000004224   -0.0000123435    0.0000000109
  -0.0000004280   -0.0000132031    0.0000000096
  -0.0000004327   -0.0000140724    0.0000000085
  -0.0000004365   -0.0000149495    0.0000000076
  -0.0000004397   -0.0000158323    0.0000000071
  -0.0000004419   -0.0000167182    0.0000000073
   0.0000000279    0.0000000092   -0.0000000179
   0.0000000540   -0.0000000502   -0.0000000244
   0.0000000787   -0.0000001690   -0.0000000280
   0.0000001039   -0.0000003461   -0.0000000300
   0.0000001286   -0.0000005782   -0.0000000310
   0.0000001527   -0.0000008628   -0.0000000313
   0.0000001759   -0.0000011970   -0.0000000311
   0.0000001982   -0.0000015784   -0.0000000305
   0.0000002196   -0.0000020048   -0.0000000297
   0.0000002400   -0.0000024738   -0.0000000286
   0.0000002594   -0.0000029832   -0.0000000274
   0.0000002778   -0.0000035309   -0.0000000262
   0.0000002952   -0.0000041148   -0.0000000248
   0.0000003116   -0.0000047329   -0.0000000233
   0.0000003271   -0.0000053830   -0.0000000219
   0.0000003415   -0.0000060632   -0.0000000204
   0.0000003550   -0.0000067714   -0.0000000188
   0.0000003675   -0.0000075056   -0.0000000173
   0.0000003789   -0.0000082637   -0.0000000158
   0.0000003894   -0.0000090438   -0.0000000142
   0.0000003989   -0.0000098439   -0.0000000127
   0.0000004073   -0.0000106619   -0.0000000112
   0.0000004148   -0.0000114957   -0.0000000097
   0.0000004212   -0.0000123435   -0.0000000082
   0.0000004266   -0.0000132030   -0.0000000068
   0.0000004310   -0.0000140723   -0.0000000053
   0.0000004342   -0.0000149492   -0.0000000039
   0.0000004361   -0.0000158316   -0.0000000022
   0.0000004363   -0.0000167184   -0.0000000001
  -0.0000013223   -0.0000176009   -0.0000000102
  -0.0000013222   -0.0000176075   -0.0000000095
  -0.0000013217   -0.0000176141   -0.0000000078
  -0.0000013213   -0.0000176193   -0.0000000051
  -0.0000013211   -0.0000176226   -0.0000000017
  -0.0000013211   -0.0000176237    0.0000000019
  -0.0000013213   -0.0000176226    0.0000000055
  -0.0000013217   -0.0000176194    0.0000000089
  -0.0000013223   -0.0000176143    0.0000000116
  -0.0000013229   -0.0000176077    0.0000000133
   0.0000000000    0.0000000000    0.0000000000
   0.0000000000    0.0000000000    0.0000000000
   0.0000000000    0.0000000000    0.0000000000
   0.0000000000    0.0000000000    0.0000000000
   0.0000000000    0.0000000000    0.0000000000
   0.0000000000    0.0000000000    0.0000000000
  -0.0000000761   -0.0000000107   -0.0000000526
  -0.0000001541   -0.0000000656   -0.0000000726
  -0.0000002327   -0.0000001846   -0.0000000841
  -0.0000003106   -0.0000003613   -0.0000000902
  -0.0000003866   -0.0000005930   -0.0000000934
  -0.0000004600   -0.0000008770   -0.0000000945
  -0.0000005305   -0.0000012106   -0.0000000940
  -0.0000005980   -0.0000015914   -0.0000000925
  -0.0000006625   -0.0000020172   -0.0000000901
  -0.0000007240   -0.0000024855   -0.0000000871
  -0.0000007824   -0.0000029944   -0.0000000836
  -0.0000008379   -0.0000035415   -0.0000000798
  -0.0000008903   -0.0000041248   -0.0000000758
  -0.0000009398   -0.0000047422   -0.0000000716
  -0.0000009862   -0.0000053918   -0.0000000673
  -0.0000010296   -0.0000060714   -0.0000000629
  -0.0000010700   -0.0000067789   -0.0000000584
  -0.0000011075   -0.0000075125   -0.0000000540
  -0.0000011419   -0.0000082701   -0.0000000495
  -0.0000011733   -0.0000090496   -0.0000000449
  -0.0000012018   -0.0000098491   -0.0000000405
  -0.0000012272   -0.0000106664   -0.0000000360
  -0.0000012497   -0.0000114997   -0.0000000316
  -0.0000012692   -0.0000123469   -0.0000000273
  -0.0000012858   -0.0000132058   -0.0000000232
  -0.0000012994   -0.0000140746   -0.0000000193
  -0.0000013101   -0.0000149512   -0.0000000157
  -0.0000013175   -0.0000158334   -0.0000000126
  -0.0000013213   -0.0000167180   -0.0000000107
  -0.0000013212   -0.0000167252   -0.0000000096
  -0.0000013204   -0.0000167319   -0.0000000078
  -0.0000013197   -0.0000167374   -0.0000000050
  -0.0000013193   -0.0000167408   -0.0000000017
  -0.0000013193   -0.0000167420    0.0000000018
  -0.0000013195   -0.0000167409    0.0000000054
  -0.0000013201   -0.0000167375    0.0000000087
  -0.0000013210   -0.0000167321    0.0000000114
  -0.0000013220   -0.0000167254    0.0000000133
  -0.0000013177   -0.0000158421   -0.0000000108
  -0.0000013166   -0.0000158496   -0.0000000085
  -0.0000013156   -0.0000158555   -0.0000000055
  -0.0000013151   -0.0000158592   -0.0000000020
  -0.0000013150   -0.0000158605    0.0000000017
  -0.0000013153   -0.0000158593    0.0000000055
  -0.0000013160   -0.0000158556    0.0000000090
  -0.0000013171   -0.0000158498    0.0000000119
  -0.0000013185   -0.0000158423    0.0000000143
  -0.0000013106   -0.0000149618   -0.0000000129
  -0.0000013093   -0.0000149706   -0.0000000098
  -0.0000013081   -0.0000149772   -0.0000000063
  -0.0000013074   -0.0000149813   -0.0000000024
  -0.0000013072   -0.0000149828    0.0000000016
  -0.0000013076   -0.0000149814    0.0000000057
  -0.0000013085   -0.0000149773    0.0000000096
  -0.0000013099   -0.0000149707    0.0000000131
  -0.0000013113   -0.0000149620    0.0000000162
  -0.0000013002   -0.0000140874   -0.0000000155
  -0.0000012988   -0.0000140976   -0.0000000116
  -0.0000012975   -0.0000141052   -0.0000000075
  -0.0000012966   -0.0000141099   -0.0000000030
  -0.0000012964   -0.0000141115    0.0000000016
  -0.0000012968   -0.0000141099    0.0000000061
  -0.0000012978   -0.0000141053    0.0000000106
  -0.0000012993   -0.0000140978    0.0000000147
  -0.0000013009   -0.0000140876    0.0000000186
  -0.0000012867   -0.0000132209   -0.0000000185
  -0.0000012853   -0.0000132328   -0.0000000138
  -0.0000012838   -0.0000132415   -0.0000000088
  -0.0000012829   -0.0000132468   -0.0000000037
  -0.0000012826   -0.0000132486    0.0000000015
  -0.0000012831   -0.0000132468    0.0000000067
  -0.0000012842   -0.0000132416    0.0000000118
  -0.0000012858   -0.0000132329    0.0000000167
  -0.0000012874   -0.0000132210    0.0000000215
  -0.0000012702   -0.0000123643   -0.0000000218
  -0.0000012687   -0.0000123780   -0.0000000162
  -0.0000012672   -0.0000123879   -0.0000000104
  -0.0000012663   -0.0000123939   -0.0000000045
  -0.0000012660   -0.0000123959    0.0000000014
  -0.0000012664   -0.0000123940    0.0000000073
  -0.0000012676   -0.0000123880    0.0000000131
  -0.0000012693   -0.0000123781    0.0000000189
  -0.0000012709   -0.0000123644    0.0000000245
  -0.0000012507   -0.0000115196   -0.0000000251
  -0.0000012492   -0.0000115352   -0.0000000187
  -0.0000012477   -0.0000115464   -0.0000000121
  -0.0000012467   -0.0000115532   -0.0000000054
  -0.0000012464   -0.0000115555    0.0000000013
  -0.0000012468   -0.0000115532    0.0000000080
  -0.0000012480   -0.0000115465    0.0000000146
  -0.0000012498   -0.0000115353    0.0000000212
  -0.0000012514   -0.0000115198    0.0000000277
  -0.0000012283   -0.0000106889   -0.0000000286
  -0.0000012268   -0.0000107064   -0.0000000212
  -0.0000012252   -0.0000107190   -0.0000000138
  -0.0000012241   -0.0000107265   -0.0000000063
  -0.0000012238   -0.0000107291    0.0000000012
  -0.0000012243   -0.0000107266    0.0000000087
  -0.0000012255   -0.0000107190    0.0000000162
  -0.0000012273   -0.0000107065    0.0000000236
  -0.0000012289   -0.0000106890    0.0000000310
  -0.0000012028   -0.0000098741   -0.0000000322
  -0.0000012013   -0.0000098936   -0.0000000239
  -0.0000011997   -0.0000099075   -0.0000000156
  -0.0000011986   -0.0000099160   -0.0000000073
  -0.0000011983   -0.0000099188    0.0000000011
  -0.0000011988   -0.0000099160    0.0000000095
  -0.0000012000   -0.0000099076    0.0000000178
  -0.0000012018   -0.0000098937    0.0000000261
  -0.0000012035   -0.0000098742    0.0000000344
  -0.0000011744   -0.0000090772   -0.0000000357
  -0.0000011728   -0.0000090987   -0.0000000266
  -0.0000011712   -0.0000091141   -0.0000000174
  -0.0000011702   -0.0000091234   -0.0000000082
  -0.0000011698   -0.0000091265    0.0000000010
  -0.0000011703   -0.0000091234    0.0000000102
  -0.0000011715   -0.0000091142    0.0000000194
  -0.0000011733   -0.0000090989    0.0000000286
  -0.0000011750   -0.0000090774    0.0000000378
  -0.0000011429   -0.0000083004   -0.0000000393
  -0.0000011414   -0.0000083239   -0.0000000293
  -0.0000011398   -0.0000083407   -0.0000000192
  -0.0000011387   -0.0000083508   -0.0000000091
  -0.0000011384   -0.0000083542    0.0000000009
  -0.0000011389   -0.0000083508    0.0000000110
  -0.0000011401   -0.0000083408    0.0000000211
  -0.0000011419   -0.0000083240    0.0000000311
  -0.0000011436   -0.0000083005    0.0000000412
  -0.0000011085   -0.0000075454   -0.0000000429
  -0.0000011070   -0.0000075710   -0.0000000320
  -0.0000011053   -0.0000075892   -0.0000000210
  -0.0000011043   -0.0000076002   -0.0000000101
  -0.0000011040   -0.0000076038    0.0000000009
  -0.0000011044   -0.0000076002    0.0000000118
  -0.0000011056   -0.0000075893    0.0000000227
  -0.0000011074   -0.0000075711    0.0000000337
  -0.0000011091   -0.0000075456    0.0000000446
  -0.0000010711   -0.0000068145   -0.0000000465
  -0.0000010695   -0.0000068420   -0.0000000346
  -0.0000010679   -0.0000068617   -0.0000000228
  -0.0000010669   -0.0000068735   -0.0000000110
  -0.0000010666   -0.0000068774    0.0000000008
  -0.0000010670   -0.0000068735    0.0000000126
  -0.0000010682   -0.0000068618    0.0000000244
  -0.0000010700   -0.0000068421    0.0000000362
  -0.0000010716   -0.0000068146    0.0000000481
  -0.0000010306   -0.0000061095   -0.0000000500
  -0.0000010291   -0.0000061391   -0.0000000373
  -0.0000010275   -0.0000061601   -0.0000000246
  -0.0000010265   -0.0000061728   -0.0000000119
  -0.0000010262   -0.0000061770    0.0000000007
  -0.0000010266   -0.0000061728    0.0000000133
  -0.0000010278   -0.0000061602    0.0000000260
  -0.0000010296   -0.0000061391    0.0000000387
  -0.0000010312   -0.0000061096    0.0000000514
  -0.0000009872   -0.0000054325   -0.0000000535
  -0.0000009857   -0.0000054640   -0.0000000399
  -0.0000009842   -0.0000054864   -0.0000000263
  -0.0000009832   -0.0000054999   -0.0000000128
  -0.0000009829   -0.0000055044    0.0000000006
  -0.0000009833   -0.0000054999    0.0000000141
  -0.0000009845   -0.0000054865    0.0000000276
  -0.0000009861   -0.0000054641    0.0000000411
  -0.0000009877   -0.0000054326    0.0000000548
  -0.0000009407   -0.0000047855   -0.0000000569
  -0.0000009393   -0.0000048189   -0.0000000424
  -0.0000009379   -0.0000048427   -0.0000000280
  -0.0000009369   -0.0000048569   -0.0000000137
  -0.0000009366   -0.0000048616    0.0000000006
  -0.0000009370   -0.0000048569    0.0000000148
  -0.0000009381   -0.0000048427    0.0000000291
  -0.0000009397   -0.0000048190    0.0000000435
  -0.0000009413   -0.0000047856    0.0000000580
  -0.0000008913   -0.0000041705   -0.0000000602
  -0.0000008900   -0.0000042057   -0.0000000448
  -0.0000008886   -0.0000042307   -0.0000000296
  -0.0000008877   -0.0000042457   -0.0000000145
  -0.0000008874   -0.0000042507    0.0000000005
  -0.0000008878   -0.0000042457    0.0000000155
  -0.0000008888   -0.0000042308    0.0000000305
  -0.0000008903   -0.0000042058    0.0000000458
  -0.0000008918   -0.0000041705    0.0000000612
  -0.0000008388   -0.0000035895   -0.0000000633
  -0.0000008376   -0.0000036264   -0.0000000470
  -0.0000008364   -0.0000036526   -0.0000000310
  -0.0000008355   -0.0000036682   -0.0000000153
  -0.0000008353   -0.0000036734    0.0000000004
  -0.0000008357   -0.0000036682    0.0000000161
  -0.0000008366   -0.0000036526    0.0000000319
  -0.0000008380   -0.0000036264    0.0000000479
  -0.0000008393   -0.0000035895    0.0000000642
  -0.0000007833   -0.0000030445   -0.0000000662
  -0.0000007823   -0.0000030830   -0.0000000491
  -0.0000007812   -0.0000031102   -0.0000000324
  -0.0000007805   -0.0000031264   -0.0000000159
  -0.0000007803   -0.0000031318    0.0000000004
  -0.0000007806   -0.0000031265    0.0000000166
  -0.0000007814   -0.0000031102    0.0000000331
  -0.0000007826   -0.0000030830    0.0000000498
  -0.0000007838   -0.0000030446    0.0000000669
  -0.0000007248   -0.0000025376   -0.0000000687
  -0.0000007240   -0.0000025774   -0.0000000509
  -0.0000007232   -0.0000026055   -0.0000000335
  -0.0000007227   -0.0000026222   -0.0000000165
  -0.0000007225   -0.0000026277    0.0000000003
  -0.0000007228   -0.0000026222    0.0000000171
  -0.0000007234   -0.0000026055    0.0000000341
  -0.0000007243   -0.0000025775    0.0000000515
  -0.0000007252   -0.0000025377    0.0000000694
  -0.0000006633   -0.0000020709   -0.0000000709
  -0.0000006627   -0.0000021117   -0.0000000522
  -0.0000006623   -0.0000021404   -0.0000000343
  -0.0000006620   -0.0000021574   -0.0000000168
  -0.0000006619   -0.0000021630    0.0000000002
  -0.0000006621   -0.0000021574    0.0000000173
  -0.0000006624   -0.0000021404    0.0000000348
  -0.0000006630   -0.0000021118    0.0000000527
  -0.0000006636   -0.0000020710    0.0000000714
  -0.0000005987   -0.0000016464   -0.0000000724
  -0.0000005986   -0.0000016878   -0.0000000531
  -0.0000005985   -0.0000017167   -0.0000000346
  -0.0000005986   -0.0000017337   -0.0000000170
  -0.0000005987   -0.0000017393    0.0000000002
  -0.0000005987   -0.0000017337    0.0000000174
  -0.0000005987   -0.0000017167    0.0000000351
  -0.0000005988   -0.0000016879    0.0000000535
  -0.0000005990   -0.0000016464    0.0000000728
  -0.0000005310   -0.0000012662   -0.0000000731
  -0.0000005314   -0.0000013076   -0.0000000532
  -0.0000005320   -0.0000013363   -0.0000000345
  -0.0000005326   -0.0000013530   -0.0000000169
  -0.0000005328   -0.0000013585    0.0000000002
  -0.0000005326   -0.0000013530    0.0000000172
  -0.0000005322   -0.0000013363    0.0000000348
  -0.0000005317   -0.0000013077    0.0000000535
  -0.0000005313   -0.0000012662    0.0000000734
  -0.0000004603   -0.0000009324   -0.0000000727
  -0.0000004615   -0.0000009731   -0.0000000523
  -0.0000004629   -0.0000010008   -0.0000000336
  -0.0000004640   -0.0000010168   -0.0000000163
  -0.0000004644   -0.0000010221    0.0000000001
  -0.0000004641   -0.0000010168    0.0000000166
  -0.0000004630   -0.0000010008    0.0000000338
  -0.0000004617   -0.0000009731    0.0000000526
  -0.0000004606   -0.0000009324    0.0000000730
  -0.0000003866   -0.0000006472   -0.0000000709
  -0.0000003887   -0.0000006861   -0.0000000502
  -0.0000003911   -0.0000007120   -0.0000000318
  -0.0000003930   -0.0000007267   -0.0000000153
  -0.0000003936   -0.0000007315    0.0000000001
  -0.0000003930   -0.0000007267    0.0000000155
  -0.0000003912   -0.0000007120    0.0000000320
  -0.0000003889   -0.0000006862    0.0000000504
  -0.0000003869   -0.0000006473    0.0000000711
  -0.0000003101   -0.0000004129   -0.0000000672
  -0.0000003133   -0.0000004485   -0.0000000464
  -0.0000003169   -0.0000004714   -0.0000000288
  -0.0000003195   -0.0000004841   -0.0000000137
  -0.0000003204   -0.0000004881    0.0000000001
  -0.0000003195   -0.0000004841    0.0000000138
  -0.0000003170   -0.0000004714    0.0000000289
  -0.0000003134   -0.0000004485    0.0000000465
  -0.0000003103   -0.0000004129    0.0000000673
  -0.0000002311   -0.0000002314   -0.0000000607
  -0.0000002354   -0.0000002618   -0.0000000405
  -0.0000002402   -0.0000002804   -0.0000000244
  -0.0000002435   -0.0000002902   -0.0000000114
  -0.0000002447   -0.0000002933    0.0000000000
  -0.0000002436   -0.0000002903    0.0000000115
  -0.0000002403   -0.0000002804    0.0000000245
  -0.0000002355   -0.0000002619    0.0000000406
  -0.0000002312   -0.0000002314    0.0000000608
  -0.0000001501   -0.0000001046   -0.0000000502
  -0.0000001555   -0.0000001273   -0.0000000315
  -0.0000001612   -0.0000001401   -0.0000000185
  -0.0000001648   -0.0000001465   -0.0000000085
  -0.0000001659   -0.0000001485    0.0000000000
  -0.0000001648   -0.0000001465    0.0000000085
  -0.0000001613   -0.0000001401    0.0000000185
  -0.0000001556   -0.0000001273    0.0000000316
  -0.0000001502   -0.0000001047    0.0000000502
  -0.0000000687   -0.0000000348   -0.0000000310
  -0.0000000756   -0.0000000473   -0.0000000190
  -0.0000000801   -0.0000000536   -0.0000000109
  -0.0000000828   -0.0000000567   -0.0000000050
  -0.0000000836   -0.0000000576    0.0000000000
  -0.0000000828   -0.0000000567    0.0000000050
  -0.0000000801   -0.0000000536    0.0000000109
  -0.0000000756   -0.0000000473    0.0000000190
  -0.0000000688   -0.0000000348    0.0000000310
   0.0000000000    0.0000000000    0.0000000000
   0.0000000000    0.0000000000    0.0000000000
   0.0000000000    0.0000000000    0.0000000000
   0.0000013280   -0.0000176230   -0.0000000047
   0.0000013283   -0.0000176292   -0.0000000046
   0.0000013282   -0.0000176341   -0.0000000031
   0.0000013281   -0.0000176372   -0.0000000008
   0.0000013281   -0.0000176383    0.0000000020
   0.0000013283   -0.0000176372    0.0000000047
   0.0000013286   -0.0000176340    0.0000000071
   0.0000013289   -0.0000176290    0.0000000086
   0.0000013288   -0.0000176228    0.0000000087
   0.0000013261   -0.0000176158    0.0000000069
   0.0000013222   -0.0000167178    0.0000000124
   0.0000013171   -0.0000158323    0.0000000157
   0.0000013096   -0.0000149506    0.0000000190
   0.0000012994   -0.0000140744    0.0000000226
   0.0000012861   -0.0000132057    0.0000000264
   0.0000012698   -0.0000123468    0.0000000303
   0.0000012504   -0.0000114997    0.0000000344
   0.0000012280   -0.0000106664    0.0000000386
   0.0000012026   -0.0000098490    0.0000000428
   0.0000011741   -0.0000090496    0.0000000471
   0.0000011427   -0.0000082701    0.0000000514
   0.0000011082   -0.0000075125    0.0000000558
   0.0000010708   -0.0000067790    0.0000000601
   0.0000010303   -0.0000060714    0.0000000644
   0.0000009869   -0.0000053918    0.0000000686
   0.0000009404   -0.0000047423    0.0000000728
   0.0000008909   -0.0000041248    0.0000000768
   0.0000008385   -0.0000035415    0.0000000807
   0.0000007830   -0.0000029944    0.0000000844
   0.0000007245   -0.0000024856    0.0000000877
   0.0000006630   -0.0000020172    0.0000000906
   0.0000005984   -0.0000015915    0.0000000929
   0.0000005309   -0.0000012106    0.0000000944
   0.0000004603   -0.0000008770    0.0000000948
   0.0000003869   -0.0000005931    0.0000000936
   0.0000003108   -0.0000003614    0.0000000904
   0.0000002328   -0.0000001847    0.0000000842
   0.0000001542   -0.0000000657    0.0000000726
   0.0000000762   -0.0000000107    0.0000000526
   0.0000000688   -0.0000000348    0.0000000310
   0.0000000756   -0.0000000473    0.0000000190
   0.0000000801   -0.0000000536    0.0000000109
   0.0000000828   -0.0000000567    0.0000000050
   0.0000000836   -0.0000000576    0.0000000000
   0.0000000828   -0.0000000567   -0.0000000050
   0.0000000801   -0.0000000536   -0.0000000109
   0.0000000756   -0.0000000473   -0.0000000190
   0.0000000687   -0.0000000348   -0.0000000310
   0.0000001502   -0.0000001047    0.0000000502
   0.0000001555   -0.0000001273    0.0000000316
   0.0000001613   -0.0000001401    0.0000000185
   0.0000001648   -0.0000001465    0.0000000085
   0.0000001659   -0.0000001485    0.0000000000
   0.0000001648   -0.0000001465   -0.0000000085
   0.0000001612   -0.0000001401   -0.0000000184
   0.0000001555   -0.0000001273   -0.0000000315
   0.0000001501   -0.0000001046   -0.0000000502
   0.0000002312   -0.0000002314    0.0000000608
   0.0000002355   -0.0000002619    0.0000000406
   0.0000002403   -0.0000002804    0.0000000245
   0.0000002436   -0.0000002903    0.0000000115
   0.0000002447   -0.0000002933    0.0000000000
   0.0000002435   -0.0000002903   -0.0000000114
   0.0000002402   -0.0000002804   -0.0000000244
   0.0000002354   -0.0000002619   -0.0000000405
   0.0000002311   -0.0000002314   -0.0000000607
   0.0000003103   -0.0000004129    0.0000000673
   0.0000003134   -0.0000004485    0.0000000465
   0.0000003170   -0.0000004714    0.0000000289
   0.0000003195   -0.0000004841    0.0000000138
   0.0000003204   -0.0000004881    0.0000000001
   0.0000003195   -0.0000004841   -0.0000000137
   0.0000003169   -0.0000004714   -0.0000000288
   0.0000003133   -0.0000004485   -0.0000000464
   0.0000003101   -0.0000004129   -0.0000000672
   0.0000003869   -0.0000006473    0.0000000711
   0.0000003889   -0.0000006861    0.0000000504
   0.0000003912   -0.0000007120    0.0000000320
   0.0000003930   -0.0000007267    0.0000000155
   0.0000003936   -0.0000007315    0.0000000001
   0.0000003930   -0.0000007267   -0.0000000153
   0.0000003911   -0.0000007120   -0.0000000318
   0.0000003887   -0.0000006862   -0.0000000502
   0.0000003866   -0.0000006473   -0.0000000709
   0.0000004606   -0.0000009324    0.0000000730
   0.0000004617   -0.0000009731    0.0000000526
   0.0000004630   -0.0000010008    0.0000000339
   0.0000004641   -0.0000010168    0.0000000166
   0.0000004644   -0.0000010221    0.0000000001
   0.0000004640   -0.0000010168   -0.0000000163
   0.0000004629   -0.0000010008   -0.0000000336
   0.0000004615   -0.0000009731   -0.0000000523
   0.0000004603   -0.0000009324   -0.0000000727
   0.0000005313   -0.0000012662    0.0000000735
   0.0000005317   -0.0000013076    0.0000000535
   0.0000005322   -0.0000013363    0.0000000348
   0.0000005326   -0.0000013530    0.0000000172
   0.0000005328   -0.0000013585    0.0000000002
   0.0000005326   -0.0000013530   -0.0000000169
   0.0000005321   -0.0000013363   -0.0000000345
   0.0000005315   -0.0000013077   -0.0000000531
   0.0000005310   -0.0000012662   -0.0000000731
   0.0000005990   -0.0000016464    0.0000000728
   0.0000005988   -0.0000016878    0.0000000535
   0.0000005987   -0.0000017167    0.0000000351
   0.0000005987   -0.0000017337    0.0000000174
   0.0000005987   -0.0000017393    0.0000000002
   0.0000005986   -0.0000017337   -0.0000000170
   0.0000005985   -0.0000017167   -0.0000000346
   0.0000005986   -0.0000016878   -0.0000000530
   0.0000005987   -0.0000016464   -0.0000000724
   0.0000006636   -0.0000020709    0.0000000714
   0.0000006630   -0.0000021117    0.0000000528
   0.0000006624   -0.0000021404    0.0000000348
   0.0000006621   -0.0000021574    0.0000000174
   0.0000006619   -0.0000021630    0.0000000003
   0.0000006620   -0.0000021574   -0.0000000168
   0.0000006623   -0.0000021404   -0.0000000342
   0.0000006627   -0.0000021118   -0.0000000522
   0.0000006633   -0.0000020709   -0.0000000708
   0.0000007252   -0.0000025376    0.0000000694
   0.0000007243   -0.0000025774    0.0000000515
   0.0000007234   -0.0000026055    0.0000000341
   0.0000007228   -0.0000026222    0.0000000171
   0.0000007225   -0.0000026277    0.0000000003
   0.0000007227   -0.0000026222   -0.0000000164
   0.0000007232   -0.0000026055   -0.0000000334
   0.0000007240   -0.0000025775   -0.0000000508
   0.0000007248   -0.0000025377   -0.0000000687
   0.0000007838   -0.0000030445    0.0000000669
   0.0000007826   -0.0000030830    0.0000000498
   0.0000007814   -0.0000031102    0.0000000331
   0.0000007806   -0.0000031264    0.0000000167
   0.0000007803   -0.0000031318    0.0000000004
   0.0000007805   -0.0000031265   -0.0000000159
   0.0000007812   -0.0000031102   -0.0000000323
   0.0000007823   -0.0000030830   -0.0000000491
   0.0000007833   -0.0000030446   -0.0000000662
   0.0000008393   -0.0000035895    0.0000000642
   0.0000008380   -0.0000036264    0.0000000479
   0.0000008366   -0.0000036526    0.0000000319
   0.0000008357   -0.0000036682    0.0000000161
   0.0000008353   -0.0000036734    0.0000000004
   0.0000008355   -0.0000036682   -0.0000000152
   0.0000008364   -0.0000036526   -0.0000000310
   0.0000008376   -0.0000036264   -0.0000000470
   0.0000008388   -0.0000035895   -0.0000000633
   0.0000008918   -0.0000041705    0.0000000612
   0.0000008903   -0.0000042057    0.0000000458
   0.0000008888   -0.0000042307    0.0000000306
   0.0000008878   -0.0000042457    0.0000000155
   0.0000008874   -0.0000042507    0.0000000005
   0.0000008877   -0.0000042457   -0.0000000145
   0.0000008886   -0.0000042308   -0.0000000295
   0.0000008900   -0.0000042057   -0.0000000448
   0.0000008913   -0.0000041705   -0.0000000602
   0.0000009413   -0.0000047855    0.0000000581
   0.0000009397   -0.0000048189    0.0000000435
   0.0000009381   -0.0000048427    0.0000000291
   0.0000009370   -0.0000048569    0.0000000148
   0.0000009366   -0.0000048616    0.0000000006
   0.0000009369   -0.0000048569   -0.0000000137
   0.0000009379   -0.0000048427   -0.0000000279
   0.0000009393   -0.0000048189   -0.0000000423
   0.0000009407   -0.0000047856   -0.0000000569
   0.0000009877   -0.0000054325    0.0000000548
   0.0000009861   -0.0000054640    0.0000000412
   0.0000009845   -0.0000054865    0.0000000276
   0.0000009833   -0.0000054999    0.0000000141
   0.0000009829   -0.0000055044    0.0000000007
   0.0000009832   -0.0000054999   -0.0000000128
   0.0000009842   -0.0000054865   -0.0000000263
   0.0000009857   -0.0000054641   -0.0000000398
   0.0000009872   -0.0000054326   -0.0000000535
   0.0000010312   -0.0000061095    0.0000000515
   0.0000010295   -0.0000061391    0.0000000387
   0.0000010278   -0.0000061601    0.0000000260
   0.0000010266   -0.0000061728    0.0000000134
   0.0000010262   -0.0000061770    0.0000000007
   0.0000010265   -0.0000061728   -0.0000000119
   0.0000010275   -0.0000061602   -0.0000000245
   0.0000010291   -0.0000061391   -0.0000000372
   0.0000010306   -0.0000061096   -0.0000000500
   0.0000010716   -0.0000068145    0.0000000481
   0.0000010700   -0.0000068421    0.0000000362
   0.0000010682   -0.0000068617    0.0000000244
   0.0000010670   -0.0000068735    0.0000000126
   0.0000010666   -0.0000068774    0.0000000008
   0.0000010669   -0.0000068735   -0.0000000110
   0.0000010679   -0.0000068618   -0.0000000228
   0.0000010695   -0.0000068421   -0.0000000346
   0.0000010711   -0.0000068146   -0.0000000465
   0.0000011091   -0.0000075455    0.0000000447
   0.0000011074   -0.0000075710    0.0000000337
   0.0000011056   -0.0000075892    0.0000000228
   0.0000011044   -0.0000076002    0.0000000118
   0.0000011040   -0.0000076038    0.0000000009
   0.0000011043   -0.0000076002   -0.0000000100
   0.0000011053   -0.0000075893   -0.0000000210
   0.0000011070   -0.0000075711   -0.0000000319
   0.0000011085   -0.0000075456   -0.0000000429
   0.0000011435   -0.0000083004    0.0000000413
   0.0000011419   -0.0000083239    0.0000000312
   0.0000011401   -0.0000083407    0.0000000212
   0.0000011389   -0.0000083508    0.0000000111
   0.0000011384   -0.0000083542    0.0000000010
   0.0000011387   -0.0000083508   -0.0000000091
   0.0000011398   -0.0000083408   -0.0000000192
   0.0000011414   -0.0000083240   -0.0000000293
   0.0000011429   -0.0000083005   -0.0000000393
   0.0000011750   -0.0000090772    0.0000000379
   0.0000011733   -0.0000090987    0.0000000287
   0.0000011716   -0.0000091141    0.0000000195
   0.0000011703   -0.0000091234    0.0000000103
   0.0000011699   -0.0000091265    0.0000000011
   0.0000011702   -0.0000091234   -0.0000000082
   0.0000011712   -0.0000091142   -0.0000000174
   0.0000011728   -0.0000090988   -0.0000000266
   0.0000011744   -0.0000090774   -0.0000000358
   0.0000012034   -0.0000098741    0.0000000345
   0.0000012018   -0.0000098936    0.0000000263
   0.0000012000   -0.0000099075    0.0000000179
   0.0000011989   -0.0000099159    0.0000000096
   0.0000011984   -0.0000099188    0.0000000012
   0.0000011987   -0.0000099160   -0.0000000072
   0.0000011997   -0.0000099076   -0.0000000156
   0.0000012013   -0.0000098937   -0.0000000239
   0.0000012028   -0.0000098742   -0.0000000322
   0.0000012289   -0.0000106889    0.0000000312
   0.0000012272   -0.0000107064    0.0000000238
   0.0000012256   -0.0000107190    0.0000000164
   0.0000012244   -0.0000107265    0.0000000088
   0.0000012240   -0.0000107291    0.0000000012
   0.0000012242   -0.0000107266   -0.0000000063
   0.0000012252   -0.0000107190   -0.0000000139
   0.0000012268   -0.0000107065   -0.0000000213
   0.0000012282   -0.0000106890   -0.0000000287
   0.0000012513   -0.0000115196    0.0000000280
   0.0000012497   -0.0000115352    0.0000000215
   0.0000012481   -0.0000115464    0.0000000148
   0.0000012470   -0.0000115532    0.0000000081
   0.0000012466   -0.0000115555    0.0000000013
   0.0000012469   -0.0000115532   -0.0000000054
   0.0000012478   -0.0000115465   -0.0000000122
   0.0000012492   -0.0000115353   -0.0000000188
   0.0000012506   -0.0000115197   -0.0000000253
   0.0000012707   -0.0000123642    0.0000000248
   0.0000012692   -0.0000123780    0.0000000192
   0.0000012677   -0.0000123879    0.0000000134
   0.0000012667   -0.0000123939    0.0000000074
   0.0000012663   -0.0000123960    0.0000000014
   0.0000012665   -0.0000123940   -0.0000000046
   0.0000012674   -0.0000123880   -0.0000000105
   0.0000012687   -0.0000123781   -0.0000000163
   0.0000012700   -0.0000123644   -0.0000000219
   0.0000012870   -0.0000132208    0.0000000218
   0.0000012857   -0.0000132328    0.0000000170
   0.0000012844   -0.0000132415    0.0000000120
   0.0000012835   -0.0000132468    0.0000000068
   0.0000012831   -0.0000132486    0.0000000015
   0.0000012833   -0.0000132469   -0.0000000038
   0.0000012840   -0.0000132416   -0.0000000089
   0.0000012852   -0.0000132329   -0.0000000139
   0.0000012863   -0.0000132210   -0.0000000187
   0.0000013003   -0.0000140872    0.0000000189
   0.0000012993   -0.0000140976    0.0000000149
   0.0000012981   -0.0000141052    0.0000000107
   0.0000012973   -0.0000141099    0.0000000062
   0.0000012970   -0.0000141115    0.0000000016
   0.0000012971   -0.0000141100   -0.0000000030
   0.0000012978   -0.0000141053   -0.0000000074
   0.0000012988   -0.0000140977   -0.0000000117
   0.0000012996   -0.0000140874   -0.0000000156
   0.0000013107   -0.0000149615    0.0000000161
   0.0000013099   -0.0000149704    0.0000000130
   0.0000013090   -0.0000149771    0.0000000095
   0.0000013083   -0.0000149812    0.0000000057
   0.0000013080   -0.0000149826    0.0000000017
   0.0000013081   -0.0000149813   -0.0000000022
   0.0000013086   -0.0000149772   -0.0000000060
   0.0000013094   -0.0000149705   -0.0000000096
   0.0000013100   -0.0000149616   -0.0000000127
   0.0000013184   -0.0000158416    0.0000000136
   0.0000013180   -0.0000158493    0.0000000111
   0.0000013173   -0.0000158552    0.0000000083
   0.0000013167   -0.0000158590    0.0000000052
   0.0000013164   -0.0000158603    0.0000000018
   0.0000013165   -0.0000158590   -0.0000000015
   0.0000013169   -0.0000158553   -0.0000000047
   0.0000013175   -0.0000158495   -0.0000000075
   0.0000013177   -0.0000158418   -0.0000000100
   0.0000013242   -0.0000167257    0.0000000110
   0.0000013240   -0.0000167326    0.0000000095
   0.0000013234   -0.0000167379    0.0000000074
   0.0000013229   -0.0000167414    0.0000000048
   0.0000013227   -0.0000167425    0.0000000019
   0.0000013228   -0.0000167414   -0.0000000010
   0.0000013230   -0.0000167380   -0.0000000036
   0.0000013234   -0.0000167327   -0.0000000056
   0.0000013234   -0.0000167259   -0.0000000071
   0.0000004378   -0.0000176058    0.0000000005
  -0.0000004416   -0.0000176017   -0.0000000044
   0.0000004372   -0.0000167182    0.0000000039
  -0.0000004410   -0.0000167179   -0.0000000036
   0.0000004371   -0.0000158314    0.0000000058
  -0.0000004388   -0.0000158321   -0.0000000035
   0.0000004351   -0.0000149490    0.0000000072
  -0.0000004356   -0.0000149493   -0.0000000042
   0.0000004319   -0.0000140721    0.0000000085
  -0.0000004318   -0.0000140722   -0.0000000053
   0.0000004275   -0.0000132028    0.0000000098
  -0.0000004271   -0.0000132029   -0.0000000066
   0.0000004221   -0.0000123433    0.0000000110
  -0.0000004215   -0.0000123433   -0.0000000081
   0.0000004156   -0.0000114955    0.0000000123
  -0.0000004149   -0.0000114956   -0.0000000095
   0.0000004082   -0.0000106617    0.0000000137
  -0.0000004074   -0.0000106617   -0.0000000111
   0.0000003997   -0.0000098437    0.0000000150
  -0.0000003989   -0.0000098437   -0.0000000126
   0.0000003902   -0.0000090437    0.0000000163
  -0.0000003894   -0.0000090437   -0.0000000142
   0.0000003797   -0.0000082636    0.0000000177
  -0.0000003789   -0.0000082636   -0.0000000157
   0.0000003682   -0.0000075054    0.0000000191
  -0.0000003675   -0.0000075054   -0.0000000173
   0.0000003558   -0.0000067712    0.0000000205
  -0.0000003550   -0.0000067712   -0.0000000188
   0.0000003423   -0.0000060631    0.0000000218
  -0.0000003415   -0.0000060631   -0.0000000204
   0.0000003278   -0.0000053829    0.0000000232
  -0.0000003271   -0.0000053829   -0.0000000219
   0.0000003123   -0.0000047328    0.0000000245
  -0.0000003116   -0.0000047328   -0.0000000233
   0.0000002958   -0.0000041147    0.0000000258
  -0.0000002952   -0.0000041147   -0.0000000248
   0.0000002784   -0.0000035308    0.0000000271
  -0.0000002778   -0.0000035308   -0.0000000262
   0.0000002599   -0.0000029831    0.0000000282
  -0.0000002594   -0.0000029831   -0.0000000275
   0.0000002405   -0.0000024737    0.0000000293
  -0.0000002400   -0.0000024737   -0.0000000286
   0.0000002200   -0.0000020047    0.0000000302
  -0.0000002196   -0.0000020047   -0.0000000297
   0.0000001986   -0.0000015784    0.0000000310
  -0.0000001982   -0.0000015784   -0.0000000305
   0.0000001763   -0.0000011969    0.0000000314
  -0.0000001759   -0.0000011969   -0.0000000311
   0.0000001530   -0.0000008627    0.0000000316
  -0.0000001527   -0.0000008627   -0.0000000313
   0.0000001289   -0.0000005782    0.0000000312
  -0.0000001286   -0.0000005782   -0.0000000310
   0.0000001041   -0.0000003460    0.0000000301
  -0.0000001039   -0.0000003460   -0.0000000300
   0.0000000789   -0.0000001690    0.0000000281
  -0.0000000787   -0.0000001690   -0.0000000280
   0.0000000541   -0.0000000502    0.0000000245
  -0.0000000540   -0.0000000502   -0.0000000244
   0.0000000279    0.0000000092    0.0000000179
  -0.0000000279    0.0000000093   -0.0000000179
  -0.0000004409   -0.0000176085   -0.0000000034
   0.0000004399   -0.0000176128    0.0000000023
  -0.0000004405   -0.0000176154   -0.0000000022
   0.0000004404   -0.0000176196    0.0000000031
  -0.0000004402   -0.0000176207   -0.0000000009
   0.0000004404   -0.0000176248    0.0000000030
  -0.0000004401   -0.0000176240    0.0000000005
   0.0000004403   -0.0000176281    0.0000000026
  -0.0000004402   -0.0000176252    0.0000000019
   0.0000004402   -0.0000176293    0.0000000020
  -0.0000004403   -0.0000176241    0.0000000034
   0.0000004401   -0.0000176282    0.0000000013
  -0.0000004406   -0.0000176208    0.0000000048
   0.0000004400   -0.0000176249    0.0000000009
  -0.0000004410   -0.0000176155    0.0000000061
   0.0000004398   -0.0000176197    0.0000000009
  -0.0000004416   -0.0000176087    0.0000000073
   0.0000004392   -0.0000176130    0.0000000017
   0.0000000000    0.0000000000    0.0000000000
   0.0000000000    0.0000000000    0.0000000000
   0.0000000000    0.0000000000    0.0000000000
   0.0000000000    0.0000000000    0.0000000000
   0.0000000000    0.0000000000    0.0000000000
   0.0000000000    0.0000000000    0.0000000000
   0.0000000000    0.0000000000    0.0000000000
   0.0000000000    0.0000000000    0.0000000000
   0.0000000000    0.0000000000    0.0000000000
   0.0000000000    0.0000000000    0.0000000000
   0.0000000000    0.0000000000    0.0000000000
   0.0000000000    0.0000000000    0.0000000000
   0.0000000000    0.0000000000    0.0000000000
   0.0000000000    0.0000000000    0.0000000000
   0.0000000000    0.0000000000    0.0000000000
   0.0000000000    0.0000000000    0.0000000000
   0.0000000000    0.0000000000    0.0000000000
   0.0000000000    0.0000000000    0.0000000000
   0.0000000000    0.0000000000    0.0000000000
   0.0000000000    0.0000000000    0.0000000000
   0.0000000000    0.0000000000    0.0000000000
   0.0000000000    0.0000000000    0.0000000000
   0.0000000000    0.0000000000    0.0000000000
   0.0000000000    0.0000000000    0.0000000000
   0.0000000000    0.0000000000    0.0000000000
   0.0000000000    0.0000000000    0.0000000000
   0.0000000000    0.0000000000    0.0000000000
   0.0000000000    0.0000000000    0.0000000000
   0.0000000000    0.0000000000    0.0000000000
   0.0000000000    0.0000000000    0.0000000000
   0.0000000000    0.0000000000    0.0000000000
   0.0000000000    0.0000000000    0.0000000000
  -0.0000000221   -0.0000000146   -0.0000000107
   0.0000000221   -0.0000000146    0.0000000107
  -0.0000000226   -0.0000000245   -0.0000000068
   0.0000000226   -0.0000000245    0.0000000068
  -0.0000000234   -0.0000000293   -0.0000000041
   0.0000000234   -0.0000000293    0.0000000041
  -0.0000000239   -0.0000000314   -0.0000000019
   0.0000000239   -0.0000000314    0.0000000019
  -0.0000000241   -0.0000000320    0.0000000000
   0.0000000241   -0.0000000320    0.0000000000
  -0.0000000239   -0.0000000314    0.0000000019
   0.0000000239   -0.0000000314   -0.0000000019
  -0.0000000234   -0.0000000293    0.0000000041
   0.0000000234   -0.0000000293   -0.0000000041
  -0.0000000226   -0.0000000245    0.0000000068
   0.0000000226   -0.0000000245   -0.0000000068
  -0.0000000221   -0.0000000146    0.0000000107
   0.0000000221   -0.0000000146   -0.0000000107
  -0.0000000505   -0.0000000874   -0.0000000175
   0.0000000506   -0.0000000874    0.0000000175
  -0.0000000509   -0.0000001089   -0.0000000113
   0.0000000510   -0.0000001089    0.0000000114
  -0.0000000523   -0.0000001205   -0.0000000068
   0.0000000523   -0.0000001205    0.0000000068
  -0.0000000532   -0.0000001262   -0.0000000032
   0.0000000532   -0.0000001262    0.0000000032
  -0.0000000535   -0.0000001280    0.0000000000
   0.0000000535   -0.0000001280    0.0000000000
  -0.0000000532   -0.0000001262    0.0000000032
   0.0000000532   -0.0000001262   -0.0000000032
  -0.0000000523   -0.0000001205    0.0000000068
   0.0000000523   -0.0000001205   -0.0000000068
  -0.0000000510   -0.0000001089    0.0000000114
   0.0000000509   -0.0000001089   -0.0000000113
  -0.0000000506   -0.0000000874    0.0000000175
   0.0000000505   -0.0000000874   -0.0000000175
  -0.0000000771   -0.0000002149   -0.0000000207
   0.0000000772   -0.0000002149    0.0000000208
  -0.0000000776   -0.0000002444   -0.0000000141
   0.0000000777   -0.0000002444    0.0000000142
  -0.0000000788   -0.0000002622   -0.0000000086
   0.0000000789   -0.0000002622    0.0000000087
  -0.0000000798   -0.0000002716   -0.0000000041
   0.0000000798   -0.0000002716    0.0000000041
  -0.0000000801   -0.0000002745    0.0000000000
   0.0000000801   -0.0000002745    0.0000000000
  -0.0000000798   -0.0000002716    0.0000000041
   0.0000000798   -0.0000002716   -0.0000000041
  -0.0000000789   -0.0000002622    0.0000000087
   0.0000000788   -0.0000002622   -0.0000000086
  -0.0000000777   -0.0000002444    0.0000000142
   0.0000000776   -0.0000002444   -0.0000000141
  -0.0000000772   -0.0000002149    0.0000000208
   0.0000000771   -0.0000002149   -0.0000000207
  -0.0000001031   -0.0000003970   -0.0000000227
   0.0000001033   -0.0000003970    0.0000000228
  -0.0000001037   -0.0000004321   -0.0000000159
   0.0000001038   -0.0000004321    0.0000000160
  -0.0000001046   -0.0000004545   -0.0000000099
   0.0000001047   -0.0000004545    0.0000000101
  -0.0000001053   -0.0000004668   -0.0000000047
   0.0000001054   -0.0000004668    0.0000000049
  -0.0000001056   -0.0000004707    0.0000000001
   0.0000001056   -0.0000004707    0.0000000001
  -0.0000001054   -0.0000004668    0.0000000048
   0.0000001053   -0.0000004668   -0.0000000047
  -0.0000001047   -0.0000004545    0.0000000101
   0.0000001046   -0.0000004545   -0.0000000099
  -0.0000001038   -0.0000004321    0.0000000160
   0.0000001037   -0.0000004321   -0.0000000159
  -0.0000001033   -0.0000003970    0.0000000228
   0.0000001031   -0.0000003970   -0.0000000227
  -0.0000001284   -0.0000006320   -0.0000000238
   0.0000001286   -0.0000006320    0.0000000240
  -0.0000001288   -0.0000006705   -0.0000000170
   0.0000001290   -0.0000006705    0.0000000172
  -0.0000001295   -0.0000006961   -0.0000000108
   0.0000001296   -0.0000006961    0.0000000110
  -0.0000001300   -0.0000007106   -0.0000000052
   0.0000001300   -0.0000007106    0.0000000054
  -0.0000001302   -0.0000007153    0.0000000001
   0.0000001302   -0.0000007153    0.0000000001
  -0.0000001300   -0.0000007106    0.0000000054
   0.0000001300   -0.0000007106   -0.0000000052
  -0.0000001296   -0.0000006961    0.0000000110
   0.0000001295   -0.0000006961   -0.0000000108
  -0.0000001290   -0.0000006706    0.0000000172
   0.0000001288   -0.0000006706   -0.0000000170
  -0.0000001286   -0.0000006320    0.0000000240
   0.0000001284   -0.0000006320   -0.0000000238
  -0.0000001528   -0.0000009178   -0.0000000243
   0.0000001530   -0.0000009178    0.0000000246
  -0.0000001531   -0.0000009583   -0.0000000176
   0.0000001532   -0.0000009583    0.0000000178
  -0.0000001535   -0.0000009858   -0.0000000113
   0.0000001536   -0.0000009858    0.0000000115
  -0.0000001538   -0.0000010017   -0.0000000055
   0.0000001539   -0.0000010017    0.0000000057
  -0.0000001539   -0.0000010068    0.0000000001
   0.0000001539   -0.0000010068    0.0000000001
  -0.0000001539   -0.0000010017    0.0000000057
   0.0000001538   -0.0000010017   -0.0000000055
  -0.0000001536   -0.0000009858    0.0000000115
   0.0000001535   -0.0000009858   -0.0000000113
  -0.0000001533   -0.0000009583    0.0000000178
   0.0000001531   -0.0000009583   -0.0000000175
  -0.0000001530   -0.0000009179    0.0000000246
   0.0000001528   -0.0000009178   -0.0000000243
  -0.0000001762   -0.0000012522   -0.0000000243
   0.0000001765   -0.0000012522    0.0000000247
  -0.0000001764   -0.0000012936   -0.0000000177
   0.0000001766   -0.0000012936    0.0000000181
  -0.0000001766   -0.0000013220   -0.0000000115
   0.0000001767   -0.0000013220    0.0000000118
  -0.0000001767   -0.0000013387   -0.0000000056
   0.0000001768   -0.0000013387    0.0000000059
  -0.0000001768   -0.0000013442    0.0000000002
   0.0000001768   -0.0000013442    0.0000000002
  -0.0000001768   -0.0000013387    0.0000000059
   0.0000001767   -0.0000013387   -0.0000000056
  -0.0000001767   -0.0000013221    0.0000000118
   0.0000001766   -0.0000013221   -0.0000000115
  -0.0000001766   -0.0000012936    0.0000000181
   0.0000001764   -0.0000012936   -0.0000000177
  -0.0000001765   -0.0000012523    0.0000000247
   0.0000001762   -0.0000012523   -0.0000000243
  -0.0000001987   -0.0000016331   -0.0000000240
   0.0000001990   -0.0000016331    0.0000000245
  -0.0000001987   -0.0000016744   -0.0000000176
   0.0000001990   -0.0000016744    0.0000000181
  -0.0000001988   -0.0000017032   -0.0000000115
   0.0000001989   -0.0000017032    0.0000000119
  -0.0000001988   -0.0000017202   -0.0000000056
   0.0000001989   -0.0000017202    0.0000000060
  -0.0000001988   -0.0000017258    0.0000000002
   0.0000001988   -0.0000017258    0.0000000002
  -0.0000001989   -0.0000017202    0.0000000060
   0.0000001988   -0.0000017202   -0.0000000056
  -0.0000001989   -0.0000017033    0.0000000119
   0.0000001988   -0.0000017033   -0.0000000115
  -0.0000001990   -0.0000016745    0.0000000181
   0.0000001987   -0.0000016745   -0.0000000176
  -0.0000001990   -0.0000016332    0.0000000245
   0.0000001987   -0.0000016331   -0.0000000240
  -0.0000002201   -0.0000020583   -0.0000000235
   0.0000002205   -0.0000020583    0.0000000240
  -0.0000002201   -0.0000020990   -0.0000000173
   0.0000002204   -0.0000020990    0.0000000178
  -0.0000002200   -0.0000021276   -0.0000000113
   0.0000002202   -0.0000021276    0.0000000118
  -0.0000002200   -0.0000021445   -0.0000000055
   0.0000002201   -0.0000021445    0.0000000060
  -0.0000002200   -0.0000021502    0.0000000003
   0.0000002200   -0.0000021502    0.0000000003
  -0.0000002201   -0.0000021446    0.0000000060
   0.0000002200   -0.0000021446   -0.0000000055
  -0.0000002202   -0.0000021276    0.0000000118
   0.0000002200   -0.0000021276   -0.0000000113
  -0.0000002204   -0.0000020991    0.0000000178
   0.0000002201   -0.0000020991   -0.0000000173
  -0.0000002205   -0.0000020583    0.0000000240
   0.0000002201   -0.0000020583   -0.0000000235
  -0.0000002406   -0.0000025256   -0.0000000227
   0.0000002410   -0.0000025256    0.0000000234
  -0.0000002405   -0.0000025654   -0.0000000168
   0.0000002408   -0.0000025654    0.0000000174
  -0.0000002403   -0.0000025934   -0.0000000110
   0.0000002405   -0.0000025934    0.0000000116
  -0.0000002402   -0.0000026101   -0.0000000053
   0.0000002403   -0.0000026101    0.0000000059
  -0.0000002402   -0.0000026156    0.0000000003
   0.0000002402   -0.0000026156    0.0000000003
  -0.0000002403   -0.0000026101    0.0000000059
   0.0000002402   -0.0000026101   -0.0000000053
  -0.0000002405   -0.0000025934    0.0000000116
   0.0000002403   -0.0000025934   -0.0000000110
  -0.0000002408   -0.0000025654    0.0000000174
   0.0000002405   -0.0000025654   -0.0000000168
  -0.0000002410   -0.0000025257    0.0000000234
   0.0000002406   -0.0000025257   -0.0000000227
  -0.0000002601   -0.0000030331   -0.0000000218
   0.0000002605   -0.0000030331    0.0000000226
  -0.0000002600   -0.0000030716   -0.0000000161
   0.0000002603   -0.0000030716    0.0000000169
  -0.0000002597   -0.0000030988   -0.0000000106
   0.0000002599   -0.0000030988    0.0000000113
  -0.0000002595   -0.0000031150   -0.0000000051
   0.0000002596   -0.0000031150    0.0000000058
  -0.0000002595   -0.0000031204    0.0000000004
   0.0000002595   -0.0000031204    0.0000000004
  -0.0000002596   -0.0000031150    0.0000000058
   0.0000002595   -0.0000031150   -0.0000000051
  -0.0000002599   -0.0000030988    0.0000000113
   0.0000002597   -0.0000030988   -0.0000000106
  -0.0000002603   -0.0000030716    0.0000000169
   0.0000002600   -0.0000030716   -0.0000000161
  -0.0000002605   -0.0000030332    0.0000000226
   0.0000002601   -0.0000030332   -0.0000000218
  -0.0000002785   -0.0000035787   -0.0000000208
   0.0000002790   -0.0000035787    0.0000000217
  -0.0000002784   -0.0000036156   -0.0000000154
   0.0000002788   -0.0000036156    0.0000000163
  -0.0000002781   -0.0000036418   -0.0000000101
   0.0000002783   -0.0000036418    0.0000000110
  -0.0000002779   -0.0000036574   -0.0000000048
   0.0000002780   -0.0000036574    0.0000000057
  -0.0000002778   -0.0000036626    0.0000000004
   0.0000002778   -0.0000036626    0.0000000004
  -0.0000002780   -0.0000036574    0.0000000057
   0.0000002779   -0.0000036574   -0.0000000048
  -0.0000002783   -0.0000036418    0.0000000109
   0.0000002781   -0.0000036418   -0.0000000101
  -0.0000002788   -0.0000036157    0.0000000163
   0.0000002784   -0.0000036157   -0.0000000154
  -0.0000002790   -0.0000035788    0.0000000217
   0.0000002785   -0.0000035788   -0.0000000208
  -0.0000002960   -0.0000041603   -0.0000000197
   0.0000002965   -0.0000041603    0.0000000207
  -0.0000002959   -0.0000041955   -0.0000000146
   0.0000002962   -0.0000041955    0.0000000156
  -0.0000002955   -0.0000042205   -0.0000000095
   0.0000002957   -0.0000042205    0.0000000105
  -0.0000002953   -0.0000042355   -0.0000000045
   0.0000002954   -0.0000042355    0.0000000055
  -0.0000002952   -0.0000042405    0.0000000005
   0.0000002952   -0.0000042405    0.0000000005
  -0.0000002954   -0.0000042355    0.0000000055
   0.0000002952   -0.0000042355   -0.0000000045
  -0.0000002957   -0.0000042206    0.0000000105
   0.0000002955   -0.0000042206   -0.0000000095
  -0.0000002962   -0.0000041956    0.0000000156
   0.0000002959   -0.0000041956   -0.0000000146
  -0.0000002965   -0.0000041604    0.0000000207
   0.0000002960   -0.0000041604   -0.0000000197
  -0.0000003125   -0.0000047759   -0.0000000186
   0.0000003130   -0.0000047759    0.0000000197
  -0.0000003123   -0.0000048093   -0.0000000138
   0.0000003127   -0.0000048093    0.0000000149
  -0.0000003119   -0.0000048331   -0.0000000090
   0.0000003122   -0.0000048331    0.0000000101
  -0.0000003117   -0.0000048473   -0.0000000042
   0.0000003118   -0.0000048473    0.0000000053
  -0.0000003116   -0.0000048521    0.0000000006
   0.0000003116   -0.0000048521    0.0000000006
  -0.0000003118   -0.0000048473    0.0000000053
   0.0000003117   -0.0000048473   -0.0000000042
  -0.0000003122   -0.0000048331    0.0000000101
   0.0000003119   -0.0000048331   -0.0000000089
  -0.0000003127   -0.0000048094    0.0000000149
   0.0000003123   -0.0000048094   -0.0000000137
  -0.0000003130   -0.0000047760    0.0000000197
   0.0000003125   -0.0000047760   -0.0000000186
  -0.0000003279   -0.0000054235   -0.0000000174
   0.0000003285   -0.0000054236    0.0000000187
  -0.0000003278   -0.0000054551   -0.0000000129
   0.0000003282   -0.0000054551    0.0000000142
  -0.0000003274   -0.0000054775   -0.0000000083
   0.0000003276   -0.0000054775    0.0000000096
  -0.0000003271   -0.0000054909   -0.0000000038
   0.0000003272   -0.0000054909    0.0000000051
  -0.0000003270   -0.0000054954    0.0000000006
   0.0000003270   -0.0000054954    0.0000000006
  -0.0000003272   -0.0000054910    0.0000000051
   0.0000003271   -0.0000054910   -0.0000000038
  -0.0000003276   -0.0000054775    0.0000000096
   0.0000003274   -0.0000054775   -0.0000000083
  -0.0000003282   -0.0000054551    0.0000000141
   0.0000003278   -0.0000054551   -0.0000000129
  -0.0000003285   -0.0000054237    0.0000000187
   0.0000003279   -0.0000054236   -0.0000000174
  -0.0000003424   -0.0000061012   -0.0000000162
   0.0000003430   -0.0000061012    0.0000000176
  -0.0000003422   -0.0000061307   -0.0000000119
   0.0000003426   -0.0000061307    0.0000000134
  -0.0000003418   -0.0000061518   -0.0000000077
   0.0000003421   -0.0000061518    0.0000000092
  -0.0000003415   -0.0000061644   -0.0000000035
   0.0000003417   -0.0000061644    0.0000000049
  -0.0000003415   -0.0000061686    0.0000000007
   0.0000003415   -0.0000061686    0.0000000007
  -0.0000003417   -0.0000061644    0.0000000049
   0.0000003415   -0.0000061644   -0.0000000035
  -0.0000003421   -0.0000061518    0.0000000091
   0.0000003418   -0.0000061518   -0.0000000077
  -0.0000003426   -0.0000061308    0.0000000134
   0.0000003422   -0.0000061308   -0.0000000119
  -0.0000003430   -0.0000061013    0.0000000176
   0.0000003424   -0.0000061013   -0.0000000162
  -0.0000003559   -0.0000068067   -0.0000000149
   0.0000003565   -0.0000068067    0.0000000166
  -0.0000003557   -0.0000068343   -0.0000000110
   0.0000003561   -0.0000068343    0.0000000126
  -0.0000003553   -0.0000068540   -0.0000000071
   0.0000003556   -0.0000068540    0.0000000087
  -0.0000003550   -0.0000068658   -0.0000000031
   0.0000003551   -0.0000068658    0.0000000047
  -0.0000003549   -0.0000068697    0.0000000008
   0.0000003549   -0.0000068697    0.0000000008
  -0.0000003551   -0.0000068658    0.0000000047
   0.0000003550   -0.0000068658   -0.0000000031
  -0.0000003556   -0.0000068540    0.0000000086
   0.0000003553   -0.0000068540   -0.0000000071
  -0.0000003561   -0.0000068344    0.0000000126
   0.0000003557   -0.0000068344   -0.0000000110
  -0.0000003565   -0.0000068069    0.0000000165
   0.0000003559   -0.0000068069   -0.0000000149
  -0.0000003683   -0.0000075383   -0.0000000137
   0.0000003690   -0.0000075383    0.0000000155
  -0.0000003682   -0.0000075639   -0.0000000101
   0.0000003686   -0.0000075639    0.0000000118
  -0.0000003677   -0.0000075821   -0.0000000064
   0.0000003680   -0.0000075821    0.0000000082
  -0.0000003675   -0.0000075930   -0.0000000028
   0.0000003676   -0.0000075930    0.0000000045
  -0.0000003674   -0.0000075967    0.0000000009
   0.0000003674   -0.0000075967    0.0000000009
  -0.0000003676   -0.0000075931    0.0000000045
   0.0000003675   -0.0000075931   -0.0000000028
  -0.0000003680   -0.0000075822    0.0000000082
   0.0000003677   -0.0000075822   -0.0000000064
  -0.0000003686   -0.0000075639    0.0000000118
   0.0000003682   -0.0000075639   -0.0000000101
  -0.0000003690   -0.0000075384    0.0000000154
   0.0000003683   -0.0000075384   -0.0000000137
  -0.0000003798   -0.0000082938   -0.0000000124
   0.0000003804   -0.0000082938    0.0000000144
  -0.0000003796   -0.0000083173   -0.0000000091
   0.0000003801   -0.0000083173    0.0000000111
  -0.0000003792   -0.0000083342   -0.0000000057
   0.0000003795   -0.0000083342    0.0000000077
  -0.0000003789   -0.0000083443   -0.0000000024
   0.0000003791   -0.0000083443    0.0000000043
  -0.0000003789   -0.0000083476    0.0000000010
   0.0000003789   -0.0000083476    0.0000000010
  -0.0000003791   -0.0000083443    0.0000000043
   0.0000003789   -0.0000083443   -0.0000000024
  -0.0000003795   -0.0000083342    0.0000000077
   0.0000003792   -0.0000083342   -0.0000000058
  -0.0000003801   -0.0000083174    0.0000000110
   0.0000003796   -0.0000083174   -0.0000000091
  -0.0000003804   -0.0000082939    0.0000000144
   0.0000003798   -0.0000082939   -0.0000000125
  -0.0000003903   -0.0000090713   -0.0000000112
   0.0000003909   -0.0000090713    0.0000000133
  -0.0000003901   -0.0000090928   -0.0000000081
   0.0000003906   -0.0000090928    0.0000000103
  -0.0000003897   -0.0000091082   -0.0000000051
   0.0000003900   -0.0000091082    0.0000000072
  -0.0000003894   -0.0000091174   -0.0000000020
   0.0000003896   -0.0000091174    0.0000000041
  -0.0000003894   -0.0000091205    0.0000000010
   0.0000003894   -0.0000091205    0.0000000011
  -0.0000003896   -0.0000091175    0.0000000041
   0.0000003894   -0.0000091175   -0.0000000020
  -0.0000003900   -0.0000091083    0.0000000072
   0.0000003897   -0.0000091083   -0.0000000051
  -0.0000003906   -0.0000090929    0.0000000102
   0.0000003901   -0.0000090929   -0.0000000082
  -0.0000003909   -0.0000090714    0.0000000133
   0.0000003903   -0.0000090714   -0.0000000112
  -0.0000003998   -0.0000098687   -0.0000000099
   0.0000004004   -0.0000098687    0.0000000123
  -0.0000003996   -0.0000098882   -0.0000000072
   0.0000004001   -0.0000098882    0.0000000095
  -0.0000003992   -0.0000099022   -0.0000000044
   0.0000003995   -0.0000099022    0.0000000068
  -0.0000003989   -0.0000099106   -0.0000000016
   0.0000003991   -0.0000099106    0.0000000040
  -0.0000003988   -0.0000099134    0.0000000011
   0.0000003989   -0.0000099134    0.0000000011
  -0.0000003990   -0.0000099107    0.0000000039
   0.0000003989   -0.0000099107   -0.0000000017
  -0.0000003995   -0.0000099023    0.0000000067
   0.0000003992   -0.0000099023   -0.0000000045
  -0.0000004001   -0.0000098884    0.0000000094
   0.0000003996   -0.0000098883   -0.0000000073
  -0.0000004004   -0.0000098689    0.0000000122
   0.0000003997   -0.0000098689   -0.0000000100
  -0.0000004083   -0.0000106841   -0.0000000087
   0.0000004089   -0.0000106841    0.0000000113
  -0.0000004081   -0.0000107017   -0.0000000062
   0.0000004086   -0.0000107017    0.0000000088
  -0.0000004077   -0.0000107142   -0.0000000037
   0.0000004080   -0.0000107142    0.0000000063
  -0.0000004074   -0.0000107218   -0.0000000013
   0.0000004076   -0.0000107218    0.0000000038
  -0.0000004073   -0.0000107244    0.0000000012
   0.0000004074   -0.0000107244    0.0000000012
  -0.0000004075   -0.0000107219    0.0000000037
   0.0000004075   -0.0000107219   -0.0000000013
  -0.0000004080   -0.0000107143    0.0000000062
   0.0000004077   -0.0000107143   -0.0000000038
  -0.0000004086   -0.0000107018    0.0000000086
   0.0000004081   -0.0000107018   -0.0000000063
  -0.0000004089   -0.0000106843    0.0000000111
   0.0000004082   -0.0000106843   -0.0000000088
  -0.0000004158   -0.0000115155   -0.0000000074
   0.0000004163   -0.0000115154    0.0000000102
  -0.0000004156   -0.0000115311   -0.0000000053
   0.0000004161   -0.0000115311    0.0000000081
  -0.0000004151   -0.0000115423   -0.0000000031
   0.0000004156   -0.0000115423    0.0000000059
  -0.0000004149   -0.0000115491   -0.0000000009
   0.0000004152   -0.0000115491    0.0000000036
  -0.0000004148   -0.0000115514    0.0000000013
   0.0000004150   -0.0000115514    0.0000000013
  -0.0000004150   -0.0000115491    0.0000000035
   0.0000004150   -0.0000115491   -0.0000000010
  -0.0000004155   -0.0000115424    0.0000000057
   0.0000004152   -0.0000115424   -0.0000000032
  -0.0000004161   -0.0000115312    0.0000000079
   0.0000004156   -0.0000115312   -0.0000000054
  -0.0000004165   -0.0000115156    0.0000000100
   0.0000004157   -0.0000115156   -0.0000000076
  -0.0000004223   -0.0000123607   -0.0000000062
   0.0000004228   -0.0000123607    0.0000000092
  -0.0000004221   -0.0000123745   -0.0000000044
   0.0000004226   -0.0000123745    0.0000000074
  -0.0000004216   -0.0000123844   -0.0000000025
   0.0000004221   -0.0000123844    0.0000000054
  -0.0000004213   -0.0000123904   -0.0000000005
   0.0000004218   -0.0000123904    0.0000000034
  -0.0000004213   -0.0000123925    0.0000000014
   0.0000004216   -0.0000123925    0.0000000014
  -0.0000004215   -0.0000123905    0.0000000033
   0.0000004216   -0.0000123905   -0.0000000006
  -0.0000004220   -0.0000123845    0.0000000053
   0.0000004218   -0.0000123845   -0.0000000026
  -0.0000004226   -0.0000123746    0.0000000072
   0.0000004220   -0.0000123746   -0.0000000045
  -0.0000004230   -0.0000123609    0.0000000090
   0.0000004221   -0.0000123609   -0.0000000064
  -0.0000004278   -0.0000132179   -0.0000000051
   0.0000004282   -0.0000132179    0.0000000083
  -0.0000004276   -0.0000132299   -0.0000000035
   0.0000004281   -0.0000132299    0.0000000067
  -0.0000004271   -0.0000132386   -0.0000000019
   0.0000004277   -0.0000132386    0.0000000050
  -0.0000004268   -0.0000132439   -0.0000000002
   0.0000004274   -0.0000132439    0.0000000033
  -0.0000004268   -0.0000132457    0.0000000015
   0.0000004272   -0.0000132458    0.0000000015
  -0.0000004270   -0.0000132440    0.0000000032
   0.0000004272   -0.0000132440   -0.0000000003
  -0.0000004275   -0.0000132387    0.0000000049
   0.0000004274   -0.0000132387   -0.0000000020
  -0.0000004281   -0.0000132300    0.0000000065
   0.0000004275   -0.0000132300   -0.0000000037
  -0.0000004285   -0.0000132181    0.0000000081
   0.0000004275   -0.0000132181   -0.0000000053
  -0.0000004324   -0.0000140850   -0.0000000041
   0.0000004326   -0.0000140849    0.0000000073
  -0.0000004321   -0.0000140953   -0.0000000028
   0.0000004326   -0.0000140953    0.0000000060
  -0.0000004316   -0.0000141030   -0.0000000014
   0.0000004323   -0.0000141030    0.0000000046
  -0.0000004313   -0.0000141077    0.0000000001
   0.0000004321   -0.0000141077    0.0000000031
  -0.0000004313   -0.0000141093    0.0000000016
   0.0000004319   -0.0000141093    0.0000000016
  -0.0000004315   -0.0000141077    0.0000000031
   0.0000004319   -0.0000141077    0.0000000001
  -0.0000004320   -0.0000141031    0.0000000045
   0.0000004320   -0.0000141031   -0.0000000014
  -0.0000004326   -0.0000140955    0.0000000059
   0.0000004321   -0.0000140955   -0.0000000028
  -0.0000004331   -0.0000140852    0.0000000072
   0.0000004319   -0.0000140851   -0.0000000041
  -0.0000004360   -0.0000149600   -0.0000000033
   0.0000004360   -0.0000149598    0.0000000063
  -0.0000004356   -0.0000149689   -0.0000000022
   0.0000004361   -0.0000149688    0.0000000053
  -0.0000004352   -0.0000149756   -0.0000000010
   0.0000004359   -0.0000149755    0.0000000042
  -0.0000004349   -0.0000149798    0.0000000003
   0.0000004357   -0.0000149797    0.0000000029
  -0.0000004349   -0.0000149812    0.0000000017
   0.0000004356   -0.0000149811    0.0000000017
  -0.0000004351   -0.0000149798    0.0000000031
   0.0000004355   -0.0000149797    0.0000000004
  -0.0000004355   -0.0000149757    0.0000000044
   0.0000004356   -0.0000149756   -0.0000000008
  -0.0000004362   -0.0000149690    0.0000000055
   0.0000004356   -0.0000149689   -0.0000000019
  -0.0000004367   -0.0000149602    0.0000000066
   0.0000004353   -0.0000149600   -0.0000000029
  -0.0000004388   -0.0000158410   -0.0000000028
   0.0000004382   -0.0000158405    0.0000000052
  -0.0000004384   -0.0000158487   -0.0000000019
   0.0000004384   -0.0000158482    0.0000000045
  -0.0000004380   -0.0000158546   -0.0000000008
   0.0000004383   -0.0000158542    0.0000000037
  -0.0000004378   -0.0000158584    0.0000000004
   0.0000004381   -0.0000158580    0.0000000028
  -0.0000004378   -0.0000158597    0.0000000018
   0.0000004380   -0.0000158593    0.0000000018
  -0.0000004380   -0.0000158585    0.0000000031
   0.0000004379   -0.0000158580    0.0000000008
  -0.0000004383   -0.0000158547    0.0000000044
   0.0000004380   -0.0000158543   -0.0000000001
  -0.0000004389   -0.0000158488    0.0000000054
   0.0000004379   -0.0000158484   -0.0000000009
  -0.0000004395   -0.0000158411    0.0000000063
   0.0000004375   -0.0000158407   -0.0000000016
  -0.0000004406   -0.0000167253   -0.0000000029
   0.0000004388   -0.0000167258    0.0000000038
  -0.0000004401   -0.0000167322   -0.0000000019
   0.0000004391   -0.0000167327    0.0000000036
  -0.0000004398   -0.0000167378   -0.0000000008
   0.0000004390   -0.0000167382    0.0000000032
  -0.0000004397   -0.0000167413    0.0000000005
   0.0000004389   -0.0000167417    0.0000000026
  -0.0000004397   -0.0000167425    0.0000000019
   0.0000004387   -0.0000167429    0.0000000019
  -0.0000004399   -0.0000167413    0.0000000032
   0.0000004387   -0.0000167418    0.0000000012
  -0.0000004402   -0.0000167379    0.0000000045
   0.0000004387   -0.0000167383    0.0000000006
  -0.0000004407   -0.0000167324    0.0000000057
   0.0000004386   -0.0000167329    0.0000000001
  -0.0000004413   -0.0000167255    0.0000000066
   0.0000004381   -0.0000167260    0.0000000000
VECTORS nodal_force double
0.000000 0.000000 0.000000
0.000000 0.000000 0.000000
0.000000 0.000000 0.000000
0.000000 0.000000 0.000000
0.000000 0.000000 0.000000
0.000000 0.000000 0.000000
0.000000 0.000000 0.000000
0.000000 0.000000 0.000000
0.000000 0.000000 0.000000
0.000000 0.000000 0.000000
0.000000 0.000000 0.000000
0.000000 0.000000 0.000000
0.000000 0.000000 0.000000
0.000000 0.000000 0.000000
0.000000 0.000000 0.000000
0.000000 0.000000 0.000000
0.000000 0.000000 0.000000
0.000000 0.000000 0.000000
0.000000 0.000000 0.000000
0.000000 0.000000 0.000000
0.000000 0.000000 0.000000
0.000000 0.000000 0.000000
0.000000 0.000000 0.000000
0.000000 0.000000 0.000000
0.000000 0.000000 0.000000
0.000000 0.000000 0.000000
0.000000 0.000000 0.000000
0.000000 0.000000 0.000000
0.000000 0.000000 0.000000
0.000000 0.000000 0.000000
0.000000 0.000000 0.000000
0.000000 0.000000 0.000000
0.000000 -5.000000 0.000000
0.000000 0.000000 0.000000
0.000000 0.000000 0.000000
0.000000 0.000000 0.000000
0.000000 0.000000 0.000000
0.000000 0.000000 0.000000
0.000000 0.000000 0.000000
0.000000 0.000000 0.000000
0.000000 0.000000 0.000000
0.000000 0.000000 0.000000
0.000000 0.000000 0.000000
0.000000 0.000000 0.000000
0.000000 0.000000 0.000000
0.000000 0.000000 0.000000
0.000000 0.000000 0.000000
0.000000 0.000000 0.000000
0.000000 0.000000 0.000000
0.000000 0.000000 0.000000
0.000000 0.000000 0.000000
0.000000 0.000000 0.000000
0.000000 0.000000 0.000000
0.000000 0.000000 0.000000
0.000000 0.000000 0.000000
0.000000 0.000000 0.000000
0.000000 0.000000 0.000000
0.000000 0.000000 0.000000
0.000000 0.000000 0.000000
0.000000 0.000000 0.000000
0.000000 0.000000 0.000000
0.000000 0.000000 0.000000
0.000000 0.000000 0.000000
0.000000 0.000000 0.000000
0.000000 0.000000 0.000000
0.000000 0.000000 0.000000
0.000000 0.000000 0.000000
0.000000 0.000000 0.000000
0.000000 0.000000 0.000000
0.000000 0.000000 0.000000
0.000000 0.000000 0.000000
0.000000 0.000000 0.000000
0.000000 0.000000 0.000000
0.000000 0.000000 0.000000
0.000000 0.000000 0.000000
0.000000 0.000000 0.000000
0.000000 0.000000 0.000000
0.000000 0.000000 0.000000
0.000000 0.000000 0.000000
0.000000 0.000000 0.000000
0.000000 0.000000 0.000000
0.000000 0.000000 0.000000
0.000000 0.000000 0.000000
0.000000 0.000000 0.000000
0.000000 0.000000 0.000000
0.000000 0.000000 0.000000
0.000000 0.000000 0.000000
0.000000 0.000000 0.000000
0.000000 0.000000 0.000000
0.000000 0.000000 0.000000
0.000000 0.000000 0.000000
0.000000 0.000000 0.000000
0.000000 0.000000 0.000000
0.000000 0.000000 0.000000
0.000000 0.000000 0.000000
0.000000 0.000000 0.000000
0.000000 0.000000 0.000000
0.000000 0.000000 0.000000
0.000000 0.000000 0.000000
0.000000 0.000000 0.000000
0.000000 0.000000 0.000000
0.000000 0.000000 0.000000
0.000000 0.000000 0.000000
0.000000 0.000000 0.000000
0.000000 0.000000 0.000000
0.000000 0.000000 0.000000
0.000000 0.000000 0.000000
0.000000 0.000000 0.000000
0.000000 0.000000 0.000000
0.000000 0.000000 0.000000
0.000000 0.000000 0.000000
0.000000 0.000000 0.000000
0.000000 0.000000 0.000000
0.000000 0.000000 0.000000
0.000000 0.000000 0.000000
0.000000 0.000000 0.000000
0.000000 0.000000 0.000000
0.000000 0.000000 0.000000
0.000000 0.000000 0.000000
0.000000 0.000000 0.000000
0.000000 0.000000 0.000000
0.000000 0.000000 0.000000
0.000000 0.000000 0.000000
0.000000 0.000000 0.000000
0.000000 0.000000 0.000000
0.000000 0.000000 0.000000
0.000000 0.000000 0.000000
0.000000 0.000000 0.000000
0.000000 0.000000 0.000000
0.000000 0.000000 0.000000
0.000000 0.000000 0.000000
0.000000 0.000000 0.000000
0.000000 0.000000 0.000000
0.000000 0.000000 0.000000
0.000000 0.000000 0.000000
0.000000 0.000000 0.000000
0.000000 0.000000 0.000000
0.000000 0.000000 0.000000
0.000000 0.000000 0.000000
0.000000 0.000000 0.000000
0.000000 0.000000 0.000000
0.000000 0.000000 0.000000
0.000000 0.000000 0.000000
0.000000 0.000000 0.000000
0.000000 0.000000 0.000000
0.000000 0.000000 0.000000
0.000000 0.000000 0.000000
0.000000 0.000000 0.000000
0.000000 0.000000 0.000000
0.000000 0.000000 0.000000
0.000000 0.000000 0.000000
0.000000 0.000000 0.000000
0.000000 0.000000 0.000000
0.000000 0.000000 0.000000
0.000000 0.000000 0.000000
0.000000 0.000000 0.000000
0.000000 0.000000 0.000000
0.000000 0.000000 0.000000
0.000000 0.000000 0.000000
0.000000 0.000000 0.000000
0.000000 0.000000 0.000000
0.000000 0.000000 0.000000
0.000000 0.000000 0.000000
0.000000 0.000000 0.000000
0.000000 0.000000 0.000000
0.000000 0.000000 0.000000
0.000000 0.000000 0.000000
0.000000 0.000000 0.000000
0.000000 0.000000 0.000000
0.000000 0.000000 0.000000
0.000000 0.000000 0.000000
0.000000 0.000000 0.000000
0.000000 0.000000 0.000000
0.000000 0.000000 0.000000
0.000000 0.000000 0.000000
0.000000 0.000000 0.000000
0.000000 0.000000 0.000000
0.000000 0.000000 0.000000
0.000000 0.000000 0.000000
0.000000 0.000000 0.000000
0.000000 0.000000 0.000000
0.000000 0.000000 0.000000
0.000000 0.000000 0.000000
0.000000 0.000000 0.000000
0.000000 0.000000 0.000000
0.000000 0.000000 0.000000
0.000000 0.000000 0.000000
0.000000 0.000000 0.000000
0.000000 0.000000 0.000000
0.000000 0.000000 0.000000
0.000000 0.000000 0.000000
0.000000 0.000000 0.000000
0.000000 0.000000 0.000000
0.000000 0.000000 0.000000
0.000000 0.000000 0.000000
0.000000 0.000000 0.000000
0.000000 0.000000 0.000000
0.000000 0.000000 0.000000
0.000000 0.000000 0.000000
0.000000 0.000000 0.000000
0.000000 0.000000 0.000000
0.000000 0.000000 0.000000
0.000000 0.000000 0.000000
0.000000 0.000000 0.000000
0.000000 0.000000 0.000000
0.000000 0.000000 0.000000
0.000000 0.000000 0.000000
0.000000 0.000000 0.000000
0.000000 0.000000 0.000000
0.000000 0.000000 0.000000
0.000000 0.000000 0.000000
0.000000 0.000000 0.000000
0.000000 0.000000 0.000000
0.000000 0.000000 0.000000
0.000000 0.000000 0.000000
0.000000 0.000000 0.000000
0.000000 0.000000 0.000000
0.000000 0.000000 0.000000
0.000000 0.000000 0.000000
0.000000 0.000000 0.000000
0.000000 0.000000 0.000000
0.000000 0.000000 0.000000
0.000000 0.000000 0.000000
0.000000 0.000000 0.000000
0.000000 0.000000 0.000000
0.000000 0.000000 0.000000
0.000000 0.000000 0.000000
0.000000 0.000000 0.000000
0.000000 0.000000 0.000000
0.000000 0.000000 0.000000
0.000000 0.000000 0.000000
0.000000 0.000000 0.000000
0.000000 0.000000 0.000000
0.000000 0.000000 0.000000
0.000000 0.000000 0.000000
0.000000 0.000000 0.000000
0.000000 0.000000 0.000000
0.000000 0.000000 0.000000
0.000000 0.000000 0.000000
0.000000 0.000000 0.000000
0.000000 0.000000 0.000000
0.000000 0.000000 0.000000
0.000000 0.000000 0.000000
0.000000 0.000000 0.000000
0.000000 0.000000 0.000000
0.000000 0.000000 0.000000
0.000000 0.000000 0.000000
0.000000 0.000000 0.000000
0.000000 0.000000 0.000000
0.000000 0.000000 0.000000
0.000000 0.000000 0.000000
0.000000 0.000000 0.000000
0.000000 0.000000 0.000000
0.000000 0.000000 0.000000
0.000000 0.000000 0.000000
0.000000 0.000000 0.000000
0.000000 0.000000 0.000000
0.000000 0.000000 0.000000
0.000000 0.000000 0.000000
0.000000 0.000000 0.000000
0.000000 0.000000 0.000000
0.000000 0.000000 0.000000
0.000000 0.000000 0.000000
0.000000 0.000000 0.000000
0.000000 0.000000 0.000000
0.000000 0.000000 0.000000
0.000000 0.000000 0.000000
0.000000 0.000000 0.000000
0.000000 0.000000 0.000000
0.000000 0.000000 0.000000
0.000000 0.000000 0.000000
0.000000 0.000000 0.000000
0.000000 0.000000 0.000000
0.000000 0.000000 0.000000
0.000000 0.000000 0.000000
0.000000 0.000000 0.000000
0.000000 0.000000 0.000000
0.000000 0.000000 0.000000
0.000000 0.000000 0.000000
0.000000 0.000000 0.000000
0.000000 0.000000 0.000000
0.000000 0.000000 0.000000
0.000000 0.000000 0.000000
0.000000 0.000000 0.000000
0.000000 0.000000 0.000000
0.000000 0.000000 0.000000
0.000000 0.000000 0.000000
0.000000 0.000000 0.000000
0.000000 0.000000 0.000000
0.000000 0.000000 0.000000
0.000000 0.000000 0.000000
0.000000 0.000000 0.000000
0.000000 0.000000 0.000000
0.000000 0.000000 0.000000
0.000000 0.000000 0.000000
0.000000 0.000000 0.000000
0.000000 0.000000 0.000000
0.000000 0.000000 0.000000
0.000000 0.000000 0.000000
0.000000 0.000000 0.000000
0.000000 0.000000 0.000000
0.000000 0.000000 0.000000
0.000000 0.000000 0.000000
0.000000 0.000000 0.000000
0.000000 0.000000 0.000000
0.000000 0.000000 0.000000
0.000000 0.000000 0.000000
0.000000 0.000000 0.000000
0.000000 0.000000 0.000000
0.000000 0.000000 0.000000
0.000000 0.000000 0.000000
0.000000 0.000000 0.000000
0.000000 0.000000 0.000000
0.000000 0.000000 0.000000
0.000000 0.000000 0.000000
0.000000 0.000000 0.000000
0.000000 0.000000 0.000000
0.000000 0.000000 0.000000
0.000000 0.000000 0.000000
0.000000 0.000000 0.000000
0.000000 0.000000 0.000000
0.000000 0.000000 0.000000
0.000000 0.000000 0.000000
0.000000 0.000000 0.000000
0.000000 0.000000 0.000000
0.000000 0.000000 0.000000
0.000000 0.000000 0.000000
0.000000 0.000000 0.000000
0.000000 0.000000 0.000000
0.000000 0.000000 0.000000
0.000000 0.000000 0.000000
0.000000 0.000000 0.000000
0.000000 0.000000 0.000000
0.000000 0.000000 0.000000
0.000000 0.000000 0.000000
0.000000 0.000000 0.000000
0.000000 0.000000 0.000000
0.000000 0.000000 0.000000
0.000000 0.000000 0.000000
0.000000 0.000000 0.000000
0.000000 0.000000 0.000000
0.000000 0.000000 0.000000
0.000000 0.000000 0.000000
0.000000 0.000000 0.000000
0.000000 0.000000 0.000000
0.000000 0.000000 0.000000
0.000000 0.000000 0.000000
0.000000 0.000000 0.000000
0.000000 0.000000 0.000000
0.000000 0.000000 0.000000
0.000000 0.000000 0.000000
0.000000 0.000000 0.000000
0.000000 0.000000 0.000000
0.000000 0.000000 0.000000
0.000000 0.000000 0.000000
0.000000 0.000000 0.000000
0.000000 0.000000 0.000000
0.000000 0.000000 0.000000
0.000000 0.000000 0.000000
0.000000 0.000000 0.000000
0.000000 0.000000 0.000000
0.000000 0.000000 0.000000
0.000000 0.000000 0.000000
0.000000 0.000000 0.000000
0.000000 0.000000 0.000000
0.000000 0.000000 0.000000
0.000000 0.000000 0.000000
0.000000 0.000000 0.000000
0.000000 0.000000 0.000000
0.000000 0.000000 0.000000
0.000000 0.000000 0.000000
0.000000 0.000000 0.000000
0.000000 0.000000 0.000000
0.000000 0.000000 0.000000
0.000000 0.000000 0.000000
0.000000 0.000000 0.000000
0.000000 0.000000 0.000000
0.000000 0.000000 0.000000
0.000000 0.000000 0.000000
0.000000 0.000000 0.000000
0.000000 0.000000 0.000000
0.000000 0.000000 0.000000
0.000000 0.000000 0.000000
0.000000 0.000000 0.000000
0.000000 0.000000 0.000000
0.000000 0.000000 0.000000
0.000000 0.000000 0.000000
0.000000 0.000000 0.000000
0.000000 0.000000 0.000000
0.000000 0.000000 0.000000
0.000000 0.000000 0.000000
0.000000 0.000000 0.000000
0.000000 0.000000 0.000000
0.000000 0.000000 0.000000
0.000000 0.000000 0.000000
0.000000 0.000000 0.000000
0.000000 0.000000 0.000000
0.000000 0.000000 0.000000
0.000000 0.000000 0.000000
0.000000 0.000000 0.000000
0.000000 0.000000 0.000000
0.000000 0.000000 0.000000
0.000000 0.000000 0.000000
0.000000 0.000000 0.000000
0.000000 0.000000 0.000000
0.000000 0.000000 0.000000
0.000000 0.000000 0.000000
0.000000 0.000000 0.000000
0.000000 0.000000 0.000000
0.000000 0.000000 0.000000
0.000000 0.000000 0.000000
0.000000 0.000000 0.000000
0.000000 0.000000 0.000000
0.000000 0.000000 0.000000
0.000000 0.000000 0.000000
0.000000 0.000000 0.000000
0.000000 0.000000 0.000000
0.000000 0.000000 0.000000
0.000000 0.000000 0.000000
0.000000 0.000000 0.000000
0.000000 0.000000 0.000000
0.000000 0.000000 0.000000
0.000000 0.000000 0.000000
0.000000 0.000000 0.000000
0.000000 0.000000 0.000000
0.000000 0.000000 0.000000
0.000000 0.000000 0.000000
0.000000 0.000000 0.000000
0.000000 0.000000 0.000000
0.000000 0.000000 0.000000
0.000000 0.000000 0.000000
0.000000 0.000000 0.000000
0.000000 -10.000000 0.000000
0.000000 -10.000000 0.000000
0.000000 -10.000000 0.000000
0.000000 -10.000000 0.000000
0.000000 -10.000000 0.000000
0.000000 -10.000000 0.000000
0.000000 -10.000000 0.000000
0.000000 -10.000000 0.000000
0.000000 -10.000000 0.000000
0.000000 -5.000000 0.000000
0.000000 0.000000 0.000000
0.000000 0.000000 0.000000
0.000000 0.000000 0.000000
0.000000 0.000000 0.000000
0.000000 0.000000 0.000000
0.000000 0.000000 0.000000
0.000000 0.000000 0.000000
0.000000 0.000000 0.000000
0.000000 0.000000 0.000000
0.000000 0.000000 0.000000
0.000000 0.000000 0.000000
0.000000 0.000000 0.000000
0.000000 0.000000 0.000000
0.000000 0.000000 0.000000
0.000000 0.000000 0.000000
0.000000 0.000000 0.000000
0.000000 0.000000 0.000000
0.000000 0.000000 0.000000
0.000000 0.000000 0.000000
0.000000 0.000000 0.000000
0.000000 0.000000 0.000000
0.000000 0.000000 0.000000
0.000000 0.000000 0.000000
0.000000 0.000000 0.000000
0.000000 0.000000 0.000000
0.000000 0.000000 0.000000
0.000000 0.000000 0.000000
0.000000 0.000000 0.000000
0.000000 0.000000 0.000000
0.000000 0.000000 0.000000
0.000000 0.000000 0.000000
0.000000 0.000000 0.000000
0.000000 0.000000 0.000000
0.000000 0.000000 0.000000
0.000000 0.000000 0.000000
0.000000 0.000000 0.000000
0.000000 0.000000 0.000000
0.000000 0.000000 0.000000
0.000000 0.000000 0.000000
0.000000 0.000000 0.000000
0.000000 0.000000 0.000000
0.000000 0.000000 0.000000
0.000000 0.000000 0.000000
0.000000 0.000000 0.000000
0.000000 0.000000 0.000000
0.000000 0.000000 0.000000
0.000000 0.000000 0.000000
0.000000 0.000000 0.000000
0.000000 0.000000 0.000000
0.000000 0.000000 0.000000
0.000000 0.000000 0.000000
0.000000 0.000000 0.000000
0.000000 0.000000 0.000000
0.000000 0.000000 0.000000
0.000000 0.000000 0.000000
0.000000 0.000000 0.000000
0.000000 0.000000 0.000000
0.000000 0.000000 0.000000
0.000000 0.000000 0.000000
0.000000 0.000000 0.000000
0.000000 0.000000 0.000000
0.000000 0.000000 0.000000
0.000000 0.000000 0.000000
0.000000 0.000000 0.000000
0.000000 0.000000 0.000000
0.000000 0.000000 0.000000
0.000000 0.000000 0.000000
0.000000 0.000000 0.000000
0.000000 0.000000 0.000000
0.000000 0.000000 0.000000
0.000000 0.000000 0.000000
0.000000 0.000000 0.000000
0.000000 0.000000 0.000000
0.000000 0.000000 0.000000
0.000000 0.000000 0.000000
0.000000 0.000000 0.000000
0.000000 0.000000 0.000000
0.000000 0.000000 0.000000
0.000000 0.000000 0.000000
0.000000 0.000000 0.000000
0.000000 0.000000 0.000000
0.000000 0.000000 0.000000
0.000000 0.000000 0.000000
0.000000 0.000000 0.000000
0.000000 0.000000 0.000000
0.000000 0.000000 0.000000
0.000000 0.000000 0.000000
0.000000 0.000000 0.000000
0.000000 0.000000 0.000000
0.000000 0.000000 0.000000
0.000000 0.000000 0.000000
0.000000 0.000000 0.000000
0.000000 0.000000 0.000000
0.000000 0.000000 0.000000
0.000000 0.000000 0.000000
0.000000 0.000000 0.000000
0.000000 0.000000 0.000000
0.000000 0.000000 0.000000
0.000000 0.000000 0.000000
0.000000 0.000000 0.000000
0.000000 0.000000 0.000000
0.000000 0.000000 0.000000
0.000000 0.000000 0.000000
0.000000 0.000000 0.000000
0.000000 0.000000 0.000000
0.000000 0.000000 0.000000
0.000000 0.000000 0.000000
0.000000 0.000000 0.000000
0.000000 0.000000 0.000000
0.000000 0.000000 0.000000
0.000000 0.000000 0.000000
0.000000 0.000000 0.000000
0.000000 0.000000 0.000000
0.000000 0.000000 0.000000
0.000000 0.000000 0.000000
0.000000 0.000000 0.000000
0.000000 0.000000 0.000000
0.000000 0.000000 0.000000
0.000000 0.000000 0.000000
0.000000 0.000000 0.000000
0.000000 0.000000 0.000000
0.000000 0.000000 0.000000
0.000000 0.000000 0.000000
0.000000 0.000000 0.000000
0.000000 0.000000 0.000000
0.000000 0.000000 0.000000
0.000000 0.000000 0.000000
0.000000 0.000000 0.000000
0.000000 0.000000 0.000000
0.000000 0.000000 0.000000
0.000000 0.000000 0.000000
0.000000 0.000000 0.000000
0.000000 0.000000 0.000000
0.000000 0.000000 0.000000
0.000000 0.000000 0.000000
0.000000 0.000000 0.000000
0.000000 0.000000 0.000000
0.000000 0.000000 0.000000
0.000000 0.000000 0.000000
0.000000 0.000000 0.000000
0.000000 0.000000 0.000000
0.000000 0.000000 0.000000
0.000000 0.000000 0.000000
0.000000 0.000000 0.000000
0.000000 0.000000 0.000000
0.000000 0.000000 0.000000
0.000000 0.000000 0.000000
0.000000 0.000000 0.000000
0.000000 0.000000 0.000000
0.000000 0.000000 0.000000
0.000000 0.000000 0.000000
0.000000 0.000000 0.000000
0.000000 0.000000 0.000000
0.000000 0.000000 0.000000
0.000000 0.000000 0.000000
0.000000 0.000000 0.000000
0.000000 0.000000 0.000000
0.000000 0.000000 0.000000
0.000000 0.000000 0.000000
0.000000 0.000000 0.000000
0.000000 0.000000 0.000000
0.000000 0.000000 0.000000
0.000000 0.000000 0.000000
0.000000 0.000000 0.000000
0.000000 0.000000 0.000000
0.000000 0.000000 0.000000
0.000000 0.000000 0.000000
0.000000 0.000000 0.000000
0.000000 0.000000 0.000000
0.000000 0.000000 0.000000
0.000000 0.000000 0.000000
0.000000 0.000000 0.000000
0.000000 0.000000 0.000000
0.000000 0.000000 0.000000
0.000000 0.000000 0.000000
0.000000 0.000000 0.000000
0.000000 0.000000 0.000000
0.000000 0.000000 0.000000
0.000000 0.000000 0.000000
0.000000 0.000000 0.000000
0.000000 0.000000 0.000000
0.000000 0.000000 0.000000
0.000000 0.000000 0.000000
0.000000 0.000000 0.000000
0.000000 0.000000 0.000000
0.000000 0.000000 0.000000
0.000000 0.000000 0.000000
0.000000 0.000000 0.000000
0.000000 0.000000 0.000000
0.000000 0.000000 0.000000
0.000000 0.000000 0.000000
0.000000 0.000000 0.000000
0.000000 0.000000 0.000000
0.000000 0.000000 0.000000
0.000000 0.000000 0.000000
0.000000 0.000000 0.000000
0.000000 0.000000 0.000000
0.000000 0.000000 0.000000
0.000000 0.000000 0.000000
0.000000 0.000000 0.000000
0.000000 0.000000 0.000000
0.000000 0.000000 0.000000
0.000000 0.000000 0.000000
0.000000 0.000000 0.000000
0.000000 0.000000 0.000000
0.000000 0.000000 0.000000
0.000000 0.000000 0.000000
0.000000 0.000000 0.000000
0.000000 0.000000 0.000000
0.000000 0.000000 0.000000
0.000000 0.000000 0.000000
0.000000 0.000000 0.000000
0.000000 0.000000 0.000000
0.000000 0.000000 0.000000
0.000000 0.000000 0.000000
0.000000 0.000000 0.000000
0.000000 0.000000 0.000000
0.000000 0.000000 0.000000
0.000000 0.000000 0.000000
0.000000 0.000000 0.000000
0.000000 0.000000 0.000000
0.000000 0.000000 0.000000
0.000000 0.000000 0.000000
0.000000 0.000000 0.000000
0.000000 0.000000 0.000000
0.000000 0.000000 0.000000
0.000000 0.000000 0.000000
0.000000 0.000000 0.000000
0.000000 0.000000 0.000000
0.000000 0.000000 0.000000
0.000000 0.000000 0.000000
0.000000 0.000000 0.000000
0.000000 0.000000 0.000000
0.000000 0.000000 0.000000
0.000000 0.000000 0.000000
0.000000 0.000000 0.000000
0.000000 0.000000 0.000000
0.000000 0.000000 0.000000
0.000000 0.000000 0.000000
0.000000 0.000000 0.000000
0.000000 0.000000 0.000000
0.000000 0.000000 0.000000
0.000000 0.000000 0.000000
0.000000 0.000000 0.000000
0.000000 0.000000 0.000000
0.000000 0.000000 0.000000
0.000000 0.000000 0.000000
0.000000 0.000000 0.000000
0.000000 0.000000 0.000000
0.000000 0.000000 0.000000
0.000000 0.000000 0.000000
0.000000 0.000000 0.000000
0.000000 0.000000 0.000000
0.000000 0.000000 0.000000
0.000000 0.000000 0.000000
0.000000 0.000000 0.000000
0.000000 0.000000 0.000000
0.000000 0.000000 0.000000
0.000000 0.000000 0.000000
0.000000 0.000000 0.000000
0.000000 0.000000 0.000000
0.000000 0.000000 0.000000
0.000000 0.000000 0.000000
0.000000 0.000000 0.000000
0.000000 0.000000 0.000000
0.000000 0.000000 0.000000
0.000000 0.000000 0.000000
0.000000 0.000000 0.000000
0.000000 0.000000 0.000000
0.000000 0.000000 0.000000
0.000000 0.000000 0.000000
0.000000 0.000000 0.000000
0.000000 0.000000 0.000000
0.000000 0.000000 0.000000
0.000000 0.000000 0.000000
0.000000 0.000000 0.000000
0.000000 0.000000 0.000000
0.000000 0.000000 0.000000
0.000000 0.000000 0.000000
0.000000 0.000000 0.000000
0.000000 0.000000 0.000000
0.000000 0.000000 0.000000
0.000000 0.000000 0.000000
0.000000 0.000000 0.000000
0.000000 0.000000 0.000000
0.000000 0.000000 0.000000
0.000000 0.000000 0.000000
0.000000 0.000000 0.000000
0.000000 0.000000 0.000000
0.000000 0.000000 0.000000
0.000000 0.000000 0.000000
0.000000 0.000000 0.000000
0.000000 0.000000 0.000000
0.000000 0.000000 0.000000
0.000000 0.000000 0.000000
0.000000 0.000000 0.000000
0.000000 0.000000 0.000000
0.000000 0.000000 0.000000
0.000000 0.000000 0.000000
0.000000 0.000000 0.000000
0.000000 0.000000 0.000000
0.000000 0.000000 0.000000
0.000000 0.000000 0.000000
0.000000 0.000000 0.000000
0.000000 0.000000 0.000000
0.000000 0.000000 0.000000
0.000000 0.000000 0.000000
0.000000 0.000000 0.000000
0.000000 0.000000 0.000000
0.000000 0.000000 0.000000
0.000000 0.000000 0.000000
0.000000 0.000000 0.000000
0.000000 0.000000 0.000000
0.000000 0.000000 0.000000
0.000000 0.000000 0.000000
0.000000 0.000000 0.000000
0.000000 0.000000 0.000000
0.000000 0.000000 0.000000
0.000000 0.000000 0.000000
0.000000 0.000000 0.000000
0.000000 0.000000 0.000000
0.000000 0.000000 0.000000
0.000000 0.000000 0.000000
0.000000 0.000000 0.000000
0.000000 0.000000 0.000000
0.000000 0.000000 0.000000
0.000000 0.000000 0.000000
0.000000 0.000000 0.000000
0.000000 0.000000 0.000000
0.000000 0.000000 0.000000
0.000000 0.000000 0.000000
0.000000 0.000000 0.000000
0.000000 0.000000 0.000000
0.000000 0.000000 0.000000
0.000000 0.000000 0.000000
0.000000 0.000000 0.000000
0.000000 0.000000 0.000000
0.000000 0.000000 0.000000
0.000000 0.000000 0.000000
0.000000 0.000000 0.000000
0.000000 0.000000 0.000000
0.000000 0.000000 0.000000
0.000000 0.000000 0.000000
0.000000 0.000000 0.000000
0.000000 0.000000 0.000000
0.000000 0.000000 0.000000
0.000000 0.000000 0.000000
0.000000 0.000000 0.000000
0.000000 0.000000 0.000000
0.000000 0.000000 0.000000
0.000000 0.000000 0.000000
0.000000 0.000000 0.000000
0.000000 0.000000 0.000000
0.000000 0.000000 0.000000
0.000000 0.000000 0.000000
0.000000 0.000000 0.000000
0.000000 0.000000 0.000000
0.000000 0.000000 0.000000
0.000000 0.000000 0.000000
0.000000 0.000000 0.000000
0.000000 0.000000 0.000000
0.000000 0.000000 0.000000
0.000000 0.000000 0.000000
0.000000 0.000000 0.000000
0.000000 0.000000 0.000000
0.000000 0.000000 0.000000
0.000000 0.000000 0.000000
0.000000 0.000000 0.000000
0.000000 0.000000 0.000000
0.000000 0.000000 0.000000
0.000000 0.000000 0.000000
0.000000 0.000000 0.000000
0.000000 0.000000 0.000000
0.000000 0.000000 0.000000
0.000000 0.000000 0.000000
0.000000 0.000000 0.000000
0.000000 0.000000 0.000000
0.000000 0.000000 0.000000
0.000000 0.000000 0.000000
0.000000 0.000000 0.000000
0.000000 0.000000 0.000000
0.000000 0.000000 0.000000
0.000000 0.000000 0.000000
0.000000 0.000000 0.000000
0.000000 0.000000 0.000000
0.000000 0.000000 0.000000
0.000000 0.000000 0.000000
0.000000 0.000000 0.000000
0.000000 0.000000 0.000000
0.000000 0.000000 0.000000
0.000000 0.000000 0.000000
0.000000 0.000000 0.000000
0.000000 0.000000 0.000000
0.000000 0.000000 0.000000
0.000000 0.000000 0.000000
0.000000 0.000000 0.000000
0.000000 0.000000 0.000000
0.000000 0.000000 0.000000
0.000000 0.000000 0.000000
0.000000 0.000000 0.000000
0.000000 0.000000 0.000000
0.000000 0.000000 0.000000
0.000000 0.000000 0.000000
0.000000 0.000000 0.000000
0.000000 0.000000 0.000000
0.000000 0.000000 0.000000
0.000000 0.000000 0.000000
0.000000 0.000000 0.000000
0.000000 0.000000 0.000000
0.000000 0.000000 0.000000
0.000000 0.000000 0.000000
0.000000 0.000000 0.000000
0.000000 0.000000 0.000000
0.000000 0.000000 0.000000
0.000000 0.000000 0.000000
0.000000 0.000000 0.000000
0.000000 0.000000 0.000000
0.000000 0.000000 0.000000
0.000000 0.000000 0.000000
0.000000 0.000000 0.000000
0.000000 0.000000 0.000000
0.000000 0.000000 0.000000
0.000000 0.000000 0.000000
0.000000 0.000000 0.000000
0.000000 0.000000 0.000000
0.000000 0.000000 0.000000
0.000000 0.000000 0.000000
0.000000 0.000000 0.000000
0.000000 0.000000 0.000000
0.000000 0.000000 0.000000
0.000000 0.000000 0.000000
0.000000 0.000000 0.000000
0.000000 0.000000 0.000000
0.000000 0.000000 0.000000
0.000000 0.000000 0.000000
0.000000 0.000000 0.000000
0.000000 0.000000 0.000000
0.000000 0.000000 0.000000
0.000000 0.000000 0.000000
0.000000 0.000000 0.000000
0.000000 0.000000 0.000000
0.000000 0.000000 0.000000
0.000000 0.000000 0.000000
0.000000 0.000000 0.000000
0.000000 0.000000 0.000000
0.000000 0.000000 0.000000
0.000000 0.000000 0.000000
0.000000 0.000000 0.000000
0.000000 0.000000 0.000000
0.000000 0.000000 0.000000
0.000000 0.000000 0.000000
0.000000 0.000000 0.000000
0.000000 0.000000 0.000000
0.000000 0.000000 0.000000
0.000000 0.000000 0.000000
0.000000 0.000000 0.000000
0.000000 0.000000 0.000000
0.000000 0.000000 0.000000
0.000000 0.000000 0.000000
0.000000 0.000000 0.000000
0.000000 0.000000 0.000000
0.000000 0.000000 0.000000
0.000000 0.000000 0.000000
0.000000 0.000000 0.000000
0.000000 0.000000 0.000000
0.000000 0.000000 0.000000
0.000000 0.000000 0.000000
0.000000 0.000000 0.000000
0.000000 0.000000 0.000000
0.000000 0.000000 0.000000
0.000000 0.000000 0.000000
0.000000 0.000000 0.000000
0.000000 0.000000 0.000000
0.000000 0.000000 0.000000
0.000000 0.000000 0.000000
0.000000 0.000000 0.000000
0.000000 0.000000 0.000000
0.000000 0.000000 0.000000
0.000000 0.000000 0.000000
0.000000 0.000000 0.000000
0.000000 0.000000 0.000000
0.000000 0.000000 0.000000
0.000000 0.000000 0.000000
0.000000 0.000000 0.000000
0.000000 0.000000 0.000000
0.000000 0.000000 0.000000
0.000000 0.000000 0.000000
0.000000 0.000000 0.000000
0.000000 0.000000 0.000000
0.000000 0.000000 0.000000
0.000000 0.000000 0.000000
0.000000 0.000000 0.000000
0.000000 0.000000 0.000000
0.000000 0.000000 0.000000
0.000000 0.000000 0.000000
0.000000 0.000000 0.000000
0.000000 0.000000 0.000000
0.000000 0.000000 0.000000
0.000000 0.000000 0.000000
0.000000 0.000000 0.000000
0.000000 0.000000 0.000000
0.000000 0.000000 0.000000
0.000000 0.000000 0.000000
0.000000 0.000000 0.000000
0.000000 0.000000 0.000000
0.000000 0.000000 0.000000
0.000000 0.000000 0.000000
0.000000 0.000000 0.000000
0.000000 0.000000 0.000000
0.000000 0.000000 0.000000
0.000000 0.000000 0.000000
0.000000 0.000000 0.000000
0.000000 0.000000 0.000000
0.000000 0.000000 0.000000
0.000000 0.000000 0.000000
0.000000 0.000000 0.000000
0.000000 0.000000 0.000000
0.000000 0.000000 0.000000
0.000000 0.000000 0.000000
0.000000 0.000000 0.000000
0.000000 0.000000 0.000000
0.000000 0.000000 0.000000
0.000000 0.000000 0.000000
0.000000 0.000000 0.000000
0.000000 0.000000 0.000000
0.000000 0.000000 0.000000
0.000000 0.000000 0.000000
0.000000 0.000000 0.000000
0.000000 0.000000 0.000000
0.000000 0.000000 0.000000
0.000000 0.000000 0.000000
0.000000 0.000000 0.000000
0.000000 0.000000 0.000000
0.000000 0.000000 0.000000
0.000000 0.000000 0.000000
0.000000 0.000000 0.000000
0.000000 0.000000 0.000000
0.000000 0.000000 0.000000
0.000000 0.000000 0.000000
0.000000 0.000000 0.000000
0.000000 0.000000 0.000000
0.000000 0.000000 0.000000
0.000000 0.000000 0.000000
0.000000 0.000000 0.000000
0.000000 0.000000 0.000000
0.000000 0.000000 0.000000
0.000000 0.000000 0.000000
0.000000 0.000000 0.000000
0.000000 0.000000 0.000000
0.000000 0.000000 0.000000
0.000000 0.000000 0.000000
0.000000 0.000000 0.000000
0.000000 0.000000 0.000000
0.000000 0.000000 0.000000
0.000000 0.000000 0.000000
0.000000 0.000000 0.000000
0.000000 0.000000 0.000000
0.000000 0.000000 0.000000
0.000000 0.000000 0.000000
0.000000 0.000000 0.000000
0.000000 0.000000 0.000000
0.000000 0.000000 0.000000
0.000000 0.000000 0.000000
0.000000 0.000000 0.000000
0.000000 0.000000 0.000000
0.000000 0.000000 0.000000
0.000000 0.000000 0.000000
0.000000 0.000000 0.000000
0.000000 0.000000 0.000000
0.000000 0.000000 0.000000
0.000000 0.000000 0.000000
0.000000 0.000000 0.000000
0.000000 0.000000 0.000000
0.000000 0.000000 0.000000
0.000000 0.000000 0.000000
0.000000 0.000000 0.000000
0.000000 0.000000 0.000000
0.000000 0.000000 0.000000
0.000000 0.000000 0.000000
0.000000 0.000000 0.000000
0.000000 0.000000 0.000000
0.000000 0.000000 0.000000
0.000000 0.000000 0.000000
0.000000 0.000000 0.000000
0.000000 0.000000 0.000000
0.000000 0.000000 0.000000
0.000000 0.000000 0.000000
0.000000 0.000000 0.000000
0.000000 0.000000 0.000000
0.000000 0.000000 0.000000
0.000000 0.000000 0.000000
0.000000 0.000000 0.000000
0.000000 0.000000 0.000000
0.000000 0.000000 0.000000
0.000000 0.000000 0.000000
0.000000 0.000000 0.000000
0.000000 0.000000 0.000000
0.000000 0.000000 0.000000
0.000000 0.000000 0.000000
0.000000 0.000000 0.000000
0.000000 0.000000 0.000000
0.000000 0.000000 0.000000
0.000000 0.000000 0.000000
0.000000 0.000000 0.000000
0.000000 0.000000 0.000000
0.000000 0.000000 0.000000
0.000000 0.000000 0.000000
0.000000 0.000000 0.000000
0.000000 0.000000 0.000000
0.000000 0.000000 0.000000
0.000000 0.000000 0.000000
0.000000 0.000000 0.000000
0.000000 0.000000 0.000000
0.000000 0.000000 0.000000
0.000000 0.000000 0.000000
0.000000 0.000000 0.000000
0.000000 0.000000 0.000000
0.000000 0.000000 0.000000
0.000000 0.000000 0.000000
0.000000 0.000000 0.000000
0.000000 0.000000 0.000000
0.000000 0.000000 0.000000
0.000000 0.000000 0.000000
0.000000 0.000000 0.000000
0.000000 0.000000 0.000000
0.000000 0.000000 0.000000
0.000000 0.000000 0.000000
0.000000 0.000000 0.000000
0.000000 0.000000 0.000000
0.000000 0.000000 0.000000
0.000000 0.000000 0.000000
0.000000 0.000000 0.000000
0.000000 0.000000 0.000000
0.000000 0.000000 0.000000
0.000000 0.000000 0.000000
0.000000 0.000000 0.000000
0.000000 0.000000 0.000000
0.000000 0.000000 0.000000
0.000000 0.000000 0.000000
0.000000 0.000000 0.000000
0.000000 0.000000 0.000000
0.000000 0.000000 0.000000
0.000000 0.000000 0.000000
0.000000 0.000000 0.000000
0.000000 0.000000 0.000000
0.000000 0.000000 0.000000
0.000000 0.000000 0.000000
0.000000 0.000000 0.000000
0.000000 0.000000 0.000000
0.000000 0.000000 0.000000
0.000000 0.000000 0.000000
0.000000 0.000000 0.000000
0.000000 0.000000 0.000000
0.000000 0.000000 0.000000
0.000000 0.000000 0.000000
0.000000 0.000000 0.000000
0.000000 0.000000 0.000000
0.000000 0.000000 0.000000
0.000000 0.000000 0.000000
0.000000 0.000000 0.000000
0.000000 0.000000 0.000000
0.000000 0.000000 0.000000
0.000000 0.000000 0.000000
0.000000 0.000000 0.000000
0.000000 0.000000 0.000000
0.000000 0.000000 0.000000
0.000000 0.000000 0.000000
0.000000 0.000000 0.000000
0.000000 0.000000 0.000000
0.000000 0.000000 0.000000
0.000000 0.000000 0.000000
0.000000 0.000000 0.000000
0.000000 0.000000 0.000000
0.000000 0.000000 0.000000
0.000000 0.000000 0.000000
0.000000 0.000000 0.000000
0.000000 0.000000 0.000000
0.000000 0.000000 0.000000
0.000000 0.000000 0.000000
0.000000 0.000000 0.000000
0.000000 0.000000 0.000000
0.000000 0.000000 0.000000
0.000000 0.000000 0.000000
0.000000 0.000000 0.000000
0.000000 0.000000 0.000000
0.000000 0.000000 0.000000
0.000000 0.000000 0.000000
0.000000 0.000000 0.000000
0.000000 0.000000 0.000000
0.000000 0.000000 0.000000
0.000000 0.000000 0.000000
0.000000 0.000000 0.000000
0.000000 0.000000 0.000000
0.000000 0.000000 0.000000
0.000000 0.000000 0.000000
0.000000 0.000000 0.000000
0.000000 0.000000 0.000000
0.000000 0.000000 0.000000
0.000000 0.000000 0.000000
0.000000 0.000000 0.000000
0.000000 0.000000 0.000000
0.000000 0.000000 0.000000
0.000000 0.000000 0.000000
0.000000 0.000000 0.000000
0.000000 0.000000 0.000000
0.000000 0.000000 0.000000
0.000000 0.000000 0.000000
0.000000 0.000000 0.000000
0.000000 0.000000 0.000000
0.000000 0.000000 0.000000
0.000000 0.000000 0.000000
0.000000 0.000000 0.000000
0.000000 0.000000 0.000000
0.000000 0.000000 0.000000
0.000000 0.000000 0.000000
0.000000 0.000000 0.000000
0.000000 0.000000 0.000000
0.000000 0.000000 0.000000
0.000000 0.000000 0.000000
0.000000 0.000000 0.000000
0.000000 0.000000 0.000000
0.000000 0.000000 0.000000
0.000000 0.000000 0.000000
0.000000 0.000000 0.000000
0.000000 0.000000 0.000000
0.000000 0.000000 0.000000
0.000000 0.000000 0.000000
0.000000 0.000000 0.000000
0.000000 0.000000 0.000000
0.000000 0.000000 0.000000
0.000000 0.000000 0.000000
0.000000 0.000000 0.000000
0.000000 0.000000 0.000000
0.000000 0.000000 0.000000
0.000000 0.000000 0.000000
0.000000 0.000000 0.000000
0.000000 0.000000 0.000000
0.000000 0.000000 0.000000
0.000000 0.000000 0.000000
0.000000 0.000000 0.000000
0.000000 0.000000 0.000000
0.000000 0.000000 0.000000
0.000000 0.000000 0.000000
0.000000 0.000000 0.000000
0.000000 0.000000 0.000000
0.000000 0.000000 0.000000
0.000000 0.000000 0.000000
0.000000 0.000000 0.000000
0.000000 0.000000 0.000000
0.000000 0.000000 0.000000
0.000000 0.000000 0.000000
0.000000 0.000000 0.000000
0.000000 0.000000 0.000000
0.000000 0.000000 0.000000
0.000000 0.000000 0.000000
0.000000 0.000000 0.000000
0.000000 0.000000 0.000000
0.000000 0.000000 0.000000
0.000000 0.000000 0.000000
0.000000 0.000000 0.000000
0.000000 0.000000 0.000000
0.000000 0.000000 0.000000
0.000000 0.000000 0.000000
0.000000 0.000000 0.000000
0.000000 0.000000 0.000000
0.000000 0.000000 0.000000
0.000000 0.000000 0.000000
0.000000 0.000000 0.000000
0.000000 0.000000 0.000000
0.000000 0.000000 0.000000
0.000000 0.000000 0.000000
0.000000 0.000000 0.000000
0.000000 0.000000 0.000000
0.000000 0.000000 0.000000
0.000000 0.000000 0.000000
0.000000 0.000000 0.000000
0.000000 0.000000 0.000000
0.000000 0.000000 0.000000
0.000000 0.000000 0.000000
0.000000 0.000000 0.000000
0.000000 0.000000 0.000000
0.000000 0.000000 0.000000
0.000000 0.000000 0.000000
0.000000 0.000000 0.000000
0.000000 0.000000 0.000000
0.000000 0.000000 0.000000
0.000000 0.000000 0.000000
0.000000 0.000000 0.000000
0.000000 0.000000 0.000000
0.000000 0.000000 0.000000
0.000000 0.000000 0.000000
0.000000 0.000000 0.000000
0.000000 0.000000 0.000000
0.000000 0.000000 0.000000
0.000000 0.000000 0.000000
0.000000 0.000000 0.000000
0.000000 0.000000 0.000000
0.000000 0.000000 0.000000
0.000000 0.000000 0.000000
0.000000 0.000000 0.000000
0.000000 0.000000 0.000000
0.000000 0.000000 0.000000
0.000000 0.000000 0.000000
0.000000 0.000000 0.000000
0.000000 0.000000 0.000000
0.000000 0.000000 0.000000
0.000000 0.000000 0.000000
0.000000 0.000000 0.000000
0.000000 0.000000 0.000000
0.000000 0.000000 0.000000
0.000000 0.000000 0.000000
0.000000 0.000000 0.000000
0.000000 0.000000 0.000000
0.000000 0.000000 0.000000
0.000000 0.000000 0.000000
0.000000 0.000000 0.000000
0.000000 0.000000 0.000000
0.000000 0.000000 0.000000
0.000000 0.000000 0.000000
0.000000 0.000000 0.000000
0.000000 0.000000 0.000000
0.000000 0.000000 0.000000
0.000000 0.000000 0.000000
0.000000 0.000000 0.000000
0.000000 0.000000 0.000000
0.000000 0.000000 0.000000
0.000000 0.000000 0.000000
0.000000 0.000000 0.000000
0.000000 0.000000 0.000000
0.000000 0.000000 0.000000
0.000000 0.000000 0.000000
0.000000 0.000000 0.000000
0.000000 0.000000 0.000000
0.000000 0.000000 0.000000
0.000000 0.000000 0.000000
0.000000 0.000000 0.000000
0.000000 0.000000 0.000000
0.000000 0.000000 0.000000
0.000000 0.000000 0.000000
0.000000 0.000000 0.000000
0.000000 0.000000 0.000000
0.000000 0.000000 0.000000
0.000000 0.000000 0.000000
0.000000 0.000000 0.000000
0.000000 0.000000 0.000000
0.000000 0.000000 0.000000
0.000000 0.000000 0.000000
0.000000 0.000000 0.000000
0.000000 0.000000 0.000000
0.000000 0.000000 0.000000
0.000000 0.000000 0.000000
0.000000 0.000000 0.000000
0.000000 0.000000 0.000000
0.000000 0.000000 0.000000
0.000000 0.000000 0.000000
0.000000 0.000000 0.000000
0.000000 0.000000 0.000000
0.000000 0.000000 0.000000
0.000000 0.000000 0.000000
0.000000 0.000000 0.000000
0.000000 0.000000 0.000000
0.000000 0.000000 0.000000
0.000000 0.000000 0.000000
0.000000 0.000000 0.000000
0.000000 0.000000 0.000000
0.000000 0.000000 0.000000
0.000000 0.000000 0.000000
0.000000 0.000000 0.000000
0.000000 0.000000 0.000000
0.000000 0.000000 0.000000
0.000000 0.000000 0.000000
0.000000 0.000000 0.000000
0.000000 0.000000 0.000000
0.000000 0.000000 0.000000
0.000000 0.000000 0.000000
0.000000 0.000000 0.000000
0.000000 0.000000 0.000000
0.000000 0.000000 0.000000
0.000000 0.000000 0.000000
0.000000 0.000000 0.000000
0.000000 0.000000 0.000000
0.000000 0.000000 0.000000
0.000000 0.000000 0.000000
0.000000 0.000000 0.000000
0.000000 0.000000 0.000000
0.000000 0.000000 0.000000
0.000000 0.000000 0.000000
0.000000 0.000000 0.000000
0.000000 0.000000 0.000000
0.000000 0.000000 0.000000
0.000000 0.000000 0.000000
0.000000 0.000000 0.000000
0.000000 0.000000 0.000000
0.000000 0.000000 0.000000
0.000000 0.000000 0.000000
0.000000 0.000000 0.000000
0.000000 0.000000 0.000000
0.000000 0.000000 0.000000
0.000000 0.000000 0.000000
0.000000 0.000000 0.000000
0.000000 0.000000 0.000000
0.000000 0.000000 0.000000
0.000000 0.000000 0.000000
0.000000 0.000000 0.000000
0.000000 0.000000 0.000000
0.000000 0.000000 0.000000
0.000000 0.000000 0.000000
0.000000 0.000000 0.000000
0.000000 0.000000 0.000000
0.000000 0.000000 0.000000
0.000000 0.000000 0.000000
0.000000 0.000000 0.000000
0.000000 0.000000 0.000000
0.000000 0.000000 0.000000
0.000000 0.000000 0.000000
0.000000 0.000000 0.000000
0.000000 0.000000 0.000000
0.000000 0.000000 0.000000
0.000000 0.000000 0.000000
0.000000 0.000000 0.000000
0.000000 0.000000 0.000000
0.000000 0.000000 0.000000


CELL_DATA 900
SCALARS mises double 1
LOOKUP_TABLE mises
1.001426
0.314173
1.002389
0.928757
0.065682
0.929434
0.967005
0.069533
0.967466
0.999383
0.097376
0.999652
1.016481
0.107850
1.016570
1.016574
0.107852
1.016486
0.999665
0.097382
0.999397
0.967487
0.069542
0.967026
0.929461
0.065668
0.928784
1.002413
0.314139
1.001450
1.142968
0.169949
1.144074
1.147894
0.129432
1.148738
1.139498
0.203842
1.140068
1.149984
0.238571
1.150316
1.157166
0.252284
1.157275
1.157279
0.252287
1.157170
1.150327
0.238578
1.149996
1.140086
0.203854
1.139516
1.148762
0.129446
1.147919
1.144101
0.169909
1.142995
1.107259
0.114287
1.108319
1.120390
0.101079
1.121229
1.100653
0.146696
1.101247
1.087806
0.168870
1.088156
1.083754
0.177619
1.083869
1.083872
0.177620
1.083756
1.088163
0.168874
1.087813
1.101259
0.146703
1.100664
1.121245
0.101087
1.120407
1.108338
0.114249
1.107278
1.092541
0.044090
1.093568
1.092729
0.084402
1.093540
1.072606
0.120773
1.073190
1.054475
0.138079
1.054826
1.045462
0.145213
1.045579
1.045580
0.145214
1.045463
1.054830
0.138082
1.054479
1.073197
0.120780
1.072613
1.093551
0.084413
1.092740
1.093581
0.044063
1.092554
1.063064
0.028787
1.064052
1.058839
0.077276
1.059616
1.039629
0.102310
1.040191
1.022227
0.114841
1.022566
1.012711
0.120280
1.012824
1.012825
0.120281
1.012711
1.022569
0.114844
1.022229
1.040195
0.102316
1.039634
1.059623
0.077289
1.058847
1.064062
0.028814
1.063073
1.026893
0.052946
1.027843
1.021546
0.076637
1.022289
1.005096
0.091010
1.005631
0.990224
0.099128
0.990546
0.981942
0.102926
0.982049
0.982051
0.102927
0.981941
0.990549
0.099131
0.990224
1.005635
0.091015
1.005099
1.022294
0.076651
1.021551
1.027849
0.052984
1.026901
0.987359
0.073394
0.988269
0.982377
0.077965
0.983087
0.969121
0.084105
0.969630
0.957220
0.088687
0.957526
0.950559
0.091086
0.950659
0.950662
0.091087
0.950557
0.957528
0.088689
0.957219
0.969633
0.084110
0.969122
0.983090
0.077979
0.982381
0.988273
0.073433
0.987365
0.946410
0.088143
0.947281
0.942179
0.079466
0.942857
0.931881
0.079713
0.932364
0.922694
0.081705
0.922983
0.917558
0.083045
0.917652
0.917655
0.083045
0.917555
0.922987
0.081707
0.922693
0.932367
0.079718
0.931882
0.942859
0.079480
0.942183
0.947283
0.088182
0.946417
0.904898
0.098684
0.905729
0.901425
0.080691
0.902070
0.893570
0.076789
0.894028
0.886610
0.076953
0.886882
0.882732
0.077538
0.882819
0.882824
0.077539
0.882727
0.886887
0.076955
0.886607
0.894031
0.076793
0.893570
0.902071
0.080705
0.901429
0.905729
0.098723
0.904905
0.863187
0.106237
0.863980
0.860349
0.081611
0.860962
0.854396
0.074777
0.854830
0.849156
0.073663
0.849411
0.846251
0.073720
0.846330
0.846338
0.073721
0.846244
0.849418
0.073664
0.849151
0.854834
0.074782
0.854397
0.860962
0.081624
0.860354
0.863977
0.106276
0.863196
0.821422
0.111662
0.822178
0.819073
0.082284
0.819655
0.814551
0.073368
0.814960
0.810591
0.071353
0.810831
0.808410
0.071043
0.808482
0.808492
0.071043
0.808400
0.810839
0.071355
0.810585
0.814964
0.073372
0.814550
0.819654
0.082297
0.819080
0.822171
0.111701
0.821435
0.779658
0.115562
0.780377
0.777664
0.082773
0.778215
0.774194
0.072371
0.774579
0.771168
0.069719
0.771392
0.769513
0.069150
0.769578
0.769590
0.069150
0.769501
0.771402
0.069721
0.771161
0.774584
0.072376
0.774193
0.778212
0.082786
0.777673
0.780365
0.115600
0.779675
0.737911
0.118360
0.738595
0.736164
0.083127
0.736684
0.733456
0.071665
0.733818
0.731101
0.068559
0.731309
0.729821
0.067806
0.729881
0.729894
0.067806
0.729809
0.731320
0.068560
0.731093
0.733823
0.071669
0.733456
0.736680
0.083140
0.736174
0.738578
0.118398
0.737934
0.696191
0.120358
0.696840
0.694602
0.083383
0.695091
0.692441
0.071165
0.692779
0.690561
0.067736
0.690757
0.689547
0.066852
0.689605
0.689615
0.066852
0.689538
0.690766
0.067737
0.690555
0.692784
0.071169
0.692440
0.695086
0.083396
0.694613
0.696817
0.120396
0.696219
0.654499
0.121769
0.655111
0.653001
0.083565
0.653458
0.651227
0.070814
0.651544
0.649681
0.067157
0.649869
0.648851
0.066181
0.648914
0.648914
0.066182
0.648852
0.649872
0.067158
0.649681
0.651548
0.070818
0.651229
0.653453
0.083577
0.653012
0.655085
0.121807
0.654532
0.612843
0.122743
0.613413
0.611381
0.083691
0.611801
0.609878
0.070573
0.610175
0.608561
0.066758
0.608750
0.607857
0.065719
0.607940
0.607916
0.065719
0.607882
0.608738
0.066760
0.608576
0.610175
0.070577
0.609883
0.611801
0.083704
0.611388
0.613387
0.122782
0.612875
0.571228
0.123386
0.571745
0.569759
0.083775
0.570135
0.568442
0.070414
0.568722
0.567279
0.066496
0.567484
0.566659
0.065415
0.566783
0.566714
0.065415
0.566730
0.567442
0.066497
0.567325
0.568716
0.070418
0.568454
0.570147
0.083788
0.569755
0.571732
0.123424
0.571248
0.529668
0.123764
0.530108
0.528153
0.083825
0.528472
0.526959
0.070321
0.527228
0.525895
0.066342
0.526141
0.525329
0.065236
0.525529
0.525378
0.065236
0.525481
0.526044
0.066343
0.525996
0.527209
0.070325
0.526984
0.528508
0.083838
0.528124
0.530131
0.123802
0.529653
0.488178
0.123918
0.488504
0.486580
0.083845
0.486821
0.485462
0.070284
0.485728
0.484457
0.066280
0.484779
0.483922
0.065163
0.484252
0.483967
0.065164
0.484209
0.484592
0.066280
0.484649
0.485689
0.070287
0.485508
0.486903
0.083858
0.486506
0.488601
0.123957
0.488090
0.446785
0.123865
0.446930
0.445062
0.083838
0.445191
0.443983
0.070297
0.444257
0.443009
0.066302
0.443459
0.442490
0.065190
0.443025
0.442530
0.065190
0.442986
0.443129
0.066303
0.443343
0.444187
0.070300
0.444060
0.445353
0.083851
0.444908
0.447166
0.123904
0.446557
0.405519
0.123599
0.405385
0.403622
0.083803
0.403589
0.402554
0.070362
0.402849
0.401591
0.066413
0.402240
0.401080
0.065319
0.401921
0.401115
0.065319
0.401888
0.401697
0.066413
0.402138
0.402734
0.070365
0.402677
0.403881
0.083816
0.403339
0.405860
0.123638
0.405053
0.364426
0.123091
0.363866
0.362292
0.083735
0.362027
0.361212
0.070488
0.361546
0.360255
0.066625
0.361188
0.359751
0.065567
0.361022
0.359781
0.065567
0.360994
0.360346
0.066624
0.361101
0.361368
0.070490
0.361397
0.362518
0.083748
0.361810
0.364726
0.123131
0.363575
0.323563
0.122286
0.322378
0.321109
0.083626
0.320521
0.320002
0.070687
0.320397
0.319063
0.066963
0.320380
0.318585
0.065963
0.320417
0.318609
0.065962
0.320394
0.319138
0.066961
0.320309
0.320132
0.070688
0.320273
0.321302
0.083639
0.320336
0.323822
0.122327
0.322128
0.283008
0.121095
0.280941
0.280116
0.083462
0.279107
0.278978
0.070981
0.279477
0.278114
0.067466
0.279907
0.277716
0.066556
0.280194
0.277734
0.066555
0.280176
0.278172
0.067464
0.279851
0.279083
0.070982
0.279378
0.280275
0.083475
0.278956
0.283227
0.121137
0.280731
0.242891
0.119384
0.239586
0.239379
0.083220
0.237855
0.238231
0.071401
0.238891
0.237591
0.068195
0.239851
0.237400
0.067420
0.240404
0.237413
0.067418
0.240392
0.237632
0.068191
0.239812
0.238309
0.071400
0.238818
0.239504
0.083233
0.237737
0.243070
0.119428
0.239415
0.203463
0.116963
0.198343
0.198989
0.082866
0.196919
0.197951
0.071983
0.198785
0.197874
0.069230
0.200251
0.198131
0.068664
0.201004
0.198138
0.068662
0.200997
0.197898
0.069225
0.200228
0.198001
0.071980
0.198739
0.199079
0.082878
0.196836
0.203604
0.117011
0.198209
0.165446
0.113650
0.156948
0.159360
0.082387
0.156364
0.158882
0.072814
0.159062
0.159970
0.070748
0.160773
0.160984
0.070510
0.161589
0.160987
0.070508
0.161584
0.159981
0.070742
0.160761
0.158908
0.072808
0.159040
0.159415
0.082396
0.156315
0.165549
0.113704
0.156852
0.129589
0.109474
0.116008
0.121244
0.081788
0.117518
0.122400
0.074181
0.120424
0.125283
0.073214
0.122044
0.127220
0.073436
0.122962
0.127222
0.073435
0.122957
0.125289
0.073211
0.122029
0.122413
0.074172
0.120411
0.121274
0.081787
0.117501
0.129652
0.109543
0.115938
0.091031
0.112528
0.071626
0.082846
0.089384
0.075469
0.087234
0.085172
0.078128
0.092080
0.085564
0.080762
0.094764
0.086133
0.082490
0.094769
0.086134
0.082478
0.092095
0.085568
0.080723
0.087254
0.085178
0.078064
0.082864
0.089417
0.075414
0.091075
0.112588
0.071648
0.041000
0.097140
0.133411
0.044365
0.085931
0.130533
0.053842
0.084031
0.129448
0.060475
0.083709
0.130057
0.063749
0.083756
0.130722
0.063766
0.083763
0.130716
0.060522
0.083730
0.130046
0.053903
0.084097
0.129423
0.044403
0.086036
0.130513
0.041016
0.097117
0.133412
